LAMMPS (9 Oct 2020)
OMP_NUM_THREADS environment is not set. Defaulting to 1 thread. (src/comm.cpp:94)
  using 1 OpenMP thread(s) per MPI task
##############################################################################################################################
# in.Potential_Test_TEMPLATE
#
# By: John Quinn
#
# Date: 9/21/2020
#
###############################################################################################################################

units				micro

atom_style			molecular

dimension			3

boundary 			p p p

read_data			Profs_Sim_10_point_V1.3.data
Reading data file ...
  orthogonal box = (0.0000000 0.0000000 0.0000000) to (100.00000 100.00000 100.00000)
  1 by 1 by 1 MPI processor grid
  reading atoms ...
  740 atoms
Finding 1-2 1-3 1-4 neighbors ...
  special bond factors lj:    0.0      0.0      0.0     
  special bond factors coul:  0.0      0.0      0.0     
     0 = max # of 1-2 neighbors
     0 = max # of 1-3 neighbors
     0 = max # of 1-4 neighbors
     1 = max # of special neighbors
  special bonds CPU = 0.001 seconds
  read_data CPU = 0.009 seconds

neighbor			1.0 bin
neigh_modify		delay 0 every 1 check yes one 100000 page 1000000

comm_modify cutoff 	6.5

mass				* 1.0

velocity			all set 1 0 0

angle_style 		harmonic
angle_coeff 		1 300.0 107.0

dihedral_style 		harmonic
dihedral_coeff 		1 80.0 1 2

bond_style			harmonic
bond_coeff			1 50 1.2

pair_style 			lj/cut 2.5

pair_coeff 			1 1 1 .1 2.8

timestep			0.00001

thermo				1000

dump 				1 all atom 500 dump.profs_sim_ver7

fix 				1 all nve

fix 				2 all bond/create 10 1 1 0.5 1 atype 1 dtype 1

run					1000000
Neighbor list info ...
  update every 1 steps, delay 0 steps, check yes
  max neighbors/atom: 100000, page size: 1000000
  master list distance cutoff = 3.8
  ghost atom cutoff = 6.5
  binsize = 1.9, bins = 53 53 53
  2 neighbor lists, perpetual/occasional/extra = 1 1 0
  (1) pair lj/cut, perpetual
      attributes: half, newton on
      pair build: half/bin/newton
      stencil: half/bin/3d/newton
      bin: standard
  (2) fix bond/create, occasional, copy from (1)
      attributes: half, newton on
      pair build: copy
      stencil: none
      bin: none
Per MPI rank memory allocation (min/avg/max) = 11.50 | 11.50 | 11.50 Mbytes
Step Temp E_pair E_mol TotEng Press 
       0     24175881 -0.0017074503            0    369.99829 0.00024666325 
    1000     24175881 -0.0017074503            0    369.99829 0.00024666325 
    2000     24175881 -0.0017074503            0    369.99829 0.00024666325 
    3000     24175881 -0.0017074504            0    369.99829 0.00024666325 
    4000     24175881 -0.0017074505            0    369.99829 0.00024666325 
    5000     24175881 -0.0017074506            0    369.99829 0.00024666325 
    6000     24175881 -0.0017074508            0    369.99829 0.00024666325 
    7000     24175881 -0.001707451            0    369.99829 0.00024666325 
    8000     24175881 -0.0017074512            0    369.99829 0.00024666325 
    9000     24175881 -0.0017074515            0    369.99829 0.00024666325 
   10000     24175881 -0.0017074518            0    369.99829 0.00024666325 
   11000     24175881 -0.0017074521            0    369.99829 0.00024666325 
   12000     24175881 -0.0017074524            0    369.99829 0.00024666325 
   13000     24175881 -0.0017074528            0    369.99829 0.00024666325 
   14000     24175881 -0.0017074532            0    369.99829 0.00024666325 
   15000     24175881 -0.0017074536            0    369.99829 0.00024666325 
   16000     24175881 -0.0017074541            0    369.99829 0.00024666325 
   17000     24175881 -0.0017074546            0    369.99829 0.00024666325 
   18000     24175881 -0.0017074551            0    369.99829 0.00024666325 
   19000     24175881 -0.0017074556            0    369.99829 0.00024666325 
   20000     24175881 -0.0017074562            0    369.99829 0.00024666325 
   21000     24175881 -0.0017074568            0    369.99829 0.00024666325 
   22000     24175881 -0.0017074575            0    369.99829 0.00024666325 
   23000     24175881 -0.0017074581            0    369.99829 0.00024666325 
   24000     24175881 -0.0017074588            0    369.99829 0.00024666325 
   25000     24175881 -0.0017074596            0    369.99829 0.00024666325 
   26000     24175881 -0.0017074603            0    369.99829 0.00024666325 
   27000     24175881 -0.0017074611            0    369.99829 0.00024666325 
   28000     24175881 -0.0017074619            0    369.99829 0.00024666325 
   29000     24175881 -0.0017074628            0    369.99829 0.00024666325 
   30000     24175881 -0.0017074636            0    369.99829 0.00024666325 
   31000     24175881 -0.0017074645            0    369.99829 0.00024666325 
   32000     24175881 -0.0017074655            0    369.99829 0.00024666325 
   33000     24175881 -0.0017074664            0    369.99829 0.00024666325 
   34000     24175881 -0.0017074674            0    369.99829 0.00024666325 
   35000     24175881 -0.0017074685            0    369.99829 0.00024666325 
   36000     24175881 -0.0017074695            0    369.99829 0.00024666325 
   37000     24175881 -0.0017074706            0    369.99829 0.00024666325 
   38000     24175881 -0.0017074717            0    369.99829 0.00024666325 
   39000     24175881 -0.0017074729            0    369.99829 0.00024666325 
   40000     24175881 -0.001707474            0    369.99829 0.00024666325 
   41000     24175881 -0.0017074752            0    369.99829 0.00024666325 
   42000     24175881 -0.0017074765            0    369.99829 0.00024666325 
   43000     24175881 -0.0017074777            0    369.99829 0.00024666325 
   44000     24175881 -0.001707479            0    369.99829 0.00024666325 
   45000     24175881 -0.0017074803            0    369.99829 0.00024666325 
   46000     24175881 -0.0017074817            0    369.99829 0.00024666325 
   47000     24175881 -0.0017074831            0    369.99829 0.00024666325 
   48000     24175881 -0.0017074845            0    369.99829 0.00024666325 
   49000     24175881 -0.0017074859            0    369.99829 0.00024666325 
   50000     24175881 -0.0017074874            0    369.99829 0.00024666325 
   51000     24175881 -0.0017074889            0    369.99829 0.00024666325 
   52000     24175881 -0.0017074904            0    369.99829 0.00024666325 
   53000     24175881 -0.001707492            0    369.99829 0.00024666325 
   54000     24175881 -0.0017074936            0    369.99829 0.00024666325 
   55000     24175881 -0.0017074952            0    369.99829 0.00024666325 
   56000     24175881 -0.0017074968            0    369.99829 0.00024666325 
   57000     24175881 -0.0017074985            0    369.99829 0.00024666325 
   58000     24175881 -0.0017075002            0    369.99829 0.00024666325 
   59000     24175881 -0.001707502            0    369.99829 0.00024666325 
   60000     24175881 -0.0017075037            0    369.99829 0.00024666325 
   61000     24175881 -0.0017075055            0    369.99829 0.00024666325 
   62000     24175881 -0.0017075074            0    369.99829 0.00024666325 
   63000     24175881 -0.0017075092            0    369.99829 0.00024666325 
   64000     24175881 -0.0017075111            0    369.99829 0.00024666325 
   65000     24175881 -0.001707513            0    369.99829 0.00024666325 
   66000     24175881 -0.001707515            0    369.99829 0.00024666325 
   67000     24175881 -0.0017075169            0    369.99829 0.00024666325 
   68000     24175881 -0.0017075189            0    369.99829 0.00024666325 
   69000     24175881 -0.001707521            0    369.99829 0.00024666325 
   70000     24175881 -0.001707523            0    369.99829 0.00024666325 
   71000     24175881 -0.0017075251            0    369.99829 0.00024666325 
   72000     24175881 -0.0017075273            0    369.99829 0.00024666325 
   73000     24175881 -0.0017075294            0    369.99829 0.00024666325 
   74000     24175881 -0.0017075316            0    369.99829 0.00024666325 
   75000     24175881 -0.0017075338            0    369.99829 0.00024666325 
   76000     24175881 -0.001707536            0    369.99829 0.00024666325 
   77000     24175881 -0.0017075383            0    369.99829 0.00024666325 
   78000     24175881 -0.0017075406            0    369.99829 0.00024666325 
   79000     24175881 -0.001707543            0    369.99829 0.00024666325 
   80000     24175881 -0.0017075453            0    369.99829 0.00024666325 
   81000     24175881 -0.0017075477            0    369.99829 0.00024666325 
   82000     24175881 -0.0017075501            0    369.99829 0.00024666325 
   83000     24175881 -0.0017075526            0    369.99829 0.00024666325 
   84000     24175881 -0.0017075551            0    369.99829 0.00024666325 
   85000     24175881 -0.0017075576            0    369.99829 0.00024666325 
   86000     24175881 -0.0017075601            0    369.99829 0.00024666325 
   87000     24175881 -0.0017075627            0    369.99829 0.00024666325 
   88000     24175881 -0.0017075653            0    369.99829 0.00024666325 
   89000     24175881 -0.0017075679            0    369.99829 0.00024666325 
   90000     24175881 -0.0017075706            0    369.99829 0.00024666325 
   91000     24175881 -0.0017075733            0    369.99829 0.00024666325 
   92000     24175881 -0.001707576            0    369.99829 0.00024666325 
   93000     24175881 -0.0017075787            0    369.99829 0.00024666325 
   94000     24175881 -0.0017075815            0    369.99829 0.00024666325 
   95000     24175881 -0.0017075843            0    369.99829 0.00024666325 
   96000     24175881 -0.0017075871            0    369.99829 0.00024666325 
   97000     24175881  -0.00170759            0    369.99829 0.00024666325 
   98000     24175881 -0.0017075929            0    369.99829 0.00024666325 
   99000     24175881 -0.0017075958            0    369.99829 0.00024666325 
  100000     24175881 -0.0017075988            0    369.99829 0.00024666325 
  101000     24175881 -0.0017076018            0    369.99829 0.00024666325 
  102000     24175881 -0.0017076048            0    369.99829 0.00024666325 
  103000     24175881 -0.0017076078            0    369.99829 0.00024666325 
  104000     24175881 -0.0017076109            0    369.99829 0.00024666325 
  105000     24175881 -0.001707614            0    369.99829 0.00024666325 
  106000     24175881 -0.0017076171            0    369.99829 0.00024666325 
  107000     24175881 -0.0017076203            0    369.99829 0.00024666325 
  108000     24175881 -0.0017076235            0    369.99829 0.00024666325 
  109000     24175881 -0.0017076267            0    369.99829 0.00024666325 
  110000     24175881  -0.00170763            0    369.99829 0.00024666325 
  111000     24175881 -0.0017076333            0    369.99829 0.00024666325 
  112000     24175881 -0.0017076366            0    369.99829 0.00024666325 
  113000     24175881 -0.0017076399            0    369.99829 0.00024666325 
  114000     24175881 -0.0017076433            0    369.99829 0.00024666325 
  115000     24175881 -0.0017076467            0    369.99829 0.00024666325 
  116000     24175881 -0.0017076501            0    369.99829 0.00024666325 
  117000     24175881 -0.0017076536            0    369.99829 0.00024666325 
  118000     24175881 -0.0017076571            0    369.99829 0.00024666325 
  119000     24175881 -0.0017076606            0    369.99829 0.00024666325 
  120000     24175881 -0.0017076641            0    369.99829 0.00024666325 
  121000     24175881 -0.0017076677            0    369.99829 0.00024666325 
  122000     24175881 -0.0017076713            0    369.99829 0.00024666325 
  123000     24175881 -0.001707675            0    369.99829 0.00024666325 
  124000     24175881 -0.0017076786            0    369.99829 0.00024666325 
  125000     24175881 -0.0017076823            0    369.99829 0.00024666325 
  126000     24175881 -0.0017076861            0    369.99829 0.00024666325 
  127000     24175881 -0.0017076898            0    369.99829 0.00024666325 
  128000     24175881 -0.0017076936            0    369.99829 0.00024666325 
  129000     24175881 -0.0017076974            0    369.99829 0.00024666325 
  130000     24175881 -0.0017077013            0    369.99829 0.00024666325 
  131000     24175881 -0.0017077052            0    369.99829 0.00024666325 
  132000     24175881 -0.0017077091            0    369.99829 0.00024666325 
  133000     24175881 -0.001707713            0    369.99829 0.00024666325 
  134000     24175881 -0.001707717            0    369.99829 0.00024666325 
  135000     24175881 -0.001707721            0    369.99829 0.00024666325 
  136000     24175881 -0.001707725            0    369.99829 0.00024666325 
  137000     24175881 -0.001707729            0    369.99829 0.00024666325 
  138000     24175881 -0.0017077331            0    369.99829 0.00024666325 
  139000     24175881 -0.0017077372            0    369.99829 0.00024666325 
  140000     24175881 -0.0017077414            0    369.99829 0.00024666325 
  141000     24175881 -0.0017077456            0    369.99829 0.00024666325 
  142000     24175881 -0.0017077498            0    369.99829 0.00024666325 
  143000     24175881 -0.001707754            0    369.99829 0.00024666325 
  144000     24175881 -0.0017077583            0    369.99829 0.00024666325 
  145000     24175881 -0.0017077626            0    369.99829 0.00024666325 
  146000     24175881 -0.0017077669            0    369.99829 0.00024666325 
  147000     24175881 -0.0017077712            0    369.99829 0.00024666325 
  148000     24175881 -0.0017077756            0    369.99829 0.00024666325 
  149000     24175881  -0.00170778            0    369.99829 0.00024666325 
  150000     24175881 -0.0017077845            0    369.99829 0.00024666325 
  151000     24175881 -0.0017077889            0    369.99829 0.00024666325 
  152000     24175881 -0.0017077934            0    369.99829 0.00024666325 
  153000     24175881 -0.001707798            0    369.99829 0.00024666325 
  154000     24175881 -0.0017078025            0    369.99829 0.00024666325 
  155000     24175881 -0.0017078071            0    369.99829 0.00024666325 
  156000     24175881 -0.0017078117            0    369.99829 0.00024666325 
  157000     24175881 -0.0017078164            0    369.99829 0.00024666325 
  158000     24175881 -0.0017078211            0    369.99829 0.00024666325 
  159000     24175881 -0.0017078258            0    369.99829 0.00024666325 
  160000     24175881 -0.0017078305            0    369.99829 0.00024666325 
  161000     24175881 -0.0017078353            0    369.99829 0.00024666325 
  162000     24175881 -0.0017078401            0    369.99829 0.00024666325 
  163000     24175881 -0.0017078449            0    369.99829 0.00024666325 
  164000     24175881 -0.0017078498            0    369.99829 0.00024666325 
  165000     24175881 -0.0017078547            0    369.99829 0.00024666325 
  166000     24175881 -0.0017078596            0    369.99829 0.00024666325 
  167000     24175881 -0.0017078645            0    369.99829 0.00024666325 
  168000     24175881 -0.0017078695            0    369.99829 0.00024666325 
  169000     24175881 -0.0017078745            0    369.99829 0.00024666325 
  170000     24175881 -0.0017078795            0    369.99829 0.00024666325 
  171000     24175881 -0.0017078846            0    369.99829 0.00024666325 
  172000     24175881 -0.0017078897            0    369.99829 0.00024666325 
  173000     24175881 -0.0017078948            0    369.99829 0.00024666325 
  174000     24175881   -0.0017079            0    369.99829 0.00024666325 
  175000     24175881 -0.0017079052            0    369.99829 0.00024666325 
  176000     24175881 -0.0017079104            0    369.99829 0.00024666325 
  177000     24175881 -0.0017079156            0    369.99829 0.00024666325 
  178000     24175881 -0.0017079209            0    369.99829 0.00024666325 
  179000     24175881 -0.0017079262            0    369.99829 0.00024666325 
  180000     24175881 -0.0017079316            0    369.99829 0.00024666325 
  181000     24175881 -0.0017079369            0    369.99829 0.00024666325 
  182000     24175881 -0.0017079423            0    369.99829 0.00024666325 
  183000     24175881 -0.0017079477            0    369.99829 0.00024666325 
  184000     24175881 -0.0017079532            0    369.99829 0.00024666325 
  185000     24175881 -0.0017079587            0    369.99829 0.00024666325 
  186000     24175881 -0.0017079642            0    369.99829 0.00024666325 
  187000     24175881 -0.0017079697            0    369.99829 0.00024666325 
  188000     24175881 -0.0017079753            0    369.99829 0.00024666325 
  189000     24175881 -0.0017079809            0    369.99829 0.00024666325 
  190000     24175881 -0.0017079865            0    369.99829 0.00024666325 
  191000     24175881 -0.0017079922            0    369.99829 0.00024666325 
  192000     24175881 -0.0017079979            0    369.99829 0.00024666325 
  193000     24175881 -0.0017080036            0    369.99829 0.00024666325 
  194000     24175881 -0.0017080094            0    369.99829 0.00024666325 
  195000     24175881 -0.0017080151            0    369.99829 0.00024666325 
  196000     24175881 -0.0017080209            0    369.99829 0.00024666325 
  197000     24175881 -0.0017080268            0    369.99829 0.00024666325 
  198000     24175881 -0.0017080327            0    369.99829 0.00024666325 
  199000     24175881 -0.0017080386            0    369.99829 0.00024666325 
  200000     24175881 -0.0017080445            0    369.99829 0.00024666325 
  201000     24175881 -0.0017080504            0    369.99829 0.00024666325 
  202000     24175881 -0.0017080564            0    369.99829 0.00024666325 
  203000     24175881 -0.0017080625            0    369.99829 0.00024666325 
  204000     24175881 -0.0017080685            0    369.99829 0.00024666325 
  205000     24175881 -0.0017080746            0    369.99829 0.00024666325 
  206000     24175881 -0.0017080807            0    369.99829 0.00024666325 
  207000     24175881 -0.0017080868            0    369.99829 0.00024666325 
  208000     24175881 -0.001708093            0    369.99829 0.00024666325 
  209000     24175881 -0.0017080992            0    369.99829 0.00024666325 
  210000     24175881 -0.0017081054            0    369.99829 0.00024666325 
  211000     24175881 -0.0017081117            0    369.99829 0.00024666325 
  212000     24175881 -0.001708118            0    369.99829 0.00024666325 
  213000     24175881 -0.0017081243            0    369.99829 0.00024666325 
  214000     24175881 -0.0017081306            0    369.99829 0.00024666325 
  215000     24175881 -0.001708137            0    369.99829 0.00024666325 
  216000     24175881 -0.0017081434            0    369.99829 0.00024666325 
  217000     24175881 -0.0017081498            0    369.99829 0.00024666325 
  218000     24175881 -0.0017081563            0    369.99829 0.00024666325 
  219000     24175881 -0.0017081628            0    369.99829 0.00024666325 
  220000     24175881 -0.0017081693            0    369.99829 0.00024666325 
  221000     24175881 -0.0017081759            0    369.99829 0.00024666325 
  222000     24175881 -0.0017081825            0    369.99829 0.00024666325 
  223000     24175881 -0.0017081891            0    369.99829 0.00024666325 
  224000     24175881 -0.0017081957            0    369.99829 0.00024666325 
  225000     24175881 -0.0017082024            0    369.99829 0.00024666325 
  226000     24175881 -0.0017082091            0    369.99829 0.00024666325 
  227000     24175881 -0.0017082158            0    369.99829 0.00024666325 
  228000     24175881 -0.0017082226            0    369.99829 0.00024666325 
  229000     24175881 -0.0017082294            0    369.99829 0.00024666325 
  230000     24175881 -0.0017082362            0    369.99829 0.00024666325 
  231000     24175881 -0.0017082431            0    369.99829 0.00024666325 
  232000     24175881  -0.00170825            0    369.99829 0.00024666325 
  233000     24175881 -0.0017082569            0    369.99829 0.00024666325 
  234000     24175881 -0.0017082638            0    369.99829 0.00024666325 
  235000     24175881 -0.0017082708            0    369.99829 0.00024666325 
  236000     24175881 -0.0017082778            0    369.99829 0.00024666325 
  237000     24175881 -0.0017082848            0    369.99829 0.00024666325 
  238000     24175881 -0.0017082919            0    369.99829 0.00024666325 
  239000     24175881 -0.001708299            0    369.99829 0.00024666325 
  240000     24175881 -0.0017083061            0    369.99829 0.00024666325 
  241000     24175881 -0.0017083132            0    369.99829 0.00024666325 
  242000     24175881 -0.0017083204            0    369.99829 0.00024666325 
  243000     24175881 -0.0017083276            0    369.99829 0.00024666325 
  244000     24175881 -0.0017083349            0    369.99829 0.00024666325 
  245000     24175881 -0.0017083421            0    369.99829 0.00024666325 
  246000     24175881 -0.0017083494            0    369.99829 0.00024666325 
  247000     24175881 -0.0017083568            0    369.99829 0.00024666325 
  248000     24175881 -0.0017083641            0    369.99829 0.00024666325 
  249000     24175881 -0.0017083715            0    369.99829 0.00024666325 
  250000     24175881 -0.0017083789            0    369.99829 0.00024666325 
  251000     24175881 -0.0017083864            0    369.99829 0.00024666325 
  252000     24175881 -0.0017083939            0    369.99829 0.00024666325 
  253000     24175881 -0.0017084014            0    369.99829 0.00024666325 
  254000     24175881 -0.0017084089            0    369.99829 0.00024666325 
  255000     24175881 -0.0017084165            0    369.99829 0.00024666325 
  256000     24175881 -0.0017084241            0    369.99829 0.00024666325 
  257000     24175881 -0.0017084317            0    369.99829 0.00024666325 
  258000     24175881 -0.0017084394            0    369.99829 0.00024666325 
  259000     24175881 -0.001708447            0    369.99829 0.00024666325 
  260000     24175881 -0.0017084548            0    369.99829 0.00024666325 
  261000     24175881 -0.0017084625            0    369.99829 0.00024666325 
  262000     24175881 -0.0017084703            0    369.99829 0.00024666325 
  263000     24175881 -0.0017084781            0    369.99829 0.00024666325 
  264000     24175881 -0.0017084859            0    369.99829 0.00024666325 
  265000     24175881 -0.0017084938            0    369.99829 0.00024666325 
  266000     24175881 -0.0017085017            0    369.99829 0.00024666325 
  267000     24175881 -0.0017085096            0    369.99829 0.00024666325 
  268000     24175881 -0.0017085176            0    369.99829 0.00024666325 
  269000     24175881 -0.0017085256            0    369.99829 0.00024666325 
  270000     24175881 -0.0017085336            0    369.99829 0.00024666325 
  271000     24175881 -0.0017085416            0    369.99829 0.00024666325 
  272000     24175881 -0.0017085497            0    369.99829 0.00024666325 
  273000     24175881 -0.0017085578            0    369.99829 0.00024666325 
  274000     24175881 -0.0017085659            0    369.99829 0.00024666325 
  275000     24175881 -0.0017085741            0    369.99829 0.00024666325 
  276000     24175881 -0.0017085823            0    369.99829 0.00024666325 
  277000     24175881 -0.0017085905            0    369.99829 0.00024666325 
  278000     24175881 -0.0017085988            0    369.99829 0.00024666325 
  279000     24175881 -0.001708607            0    369.99829 0.00024666325 
  280000     24175881 -0.0017086154            0    369.99829 0.00024666325 
  281000     24175881 -0.0017086237            0    369.99829 0.00024666325 
  282000     24175881 -0.0017086321            0    369.99829 0.00024666325 
  283000     24175881 -0.0017086405            0    369.99829 0.00024666325 
  284000     24175881 -0.0017086489            0    369.99829 0.00024666325 
  285000     24175881 -0.0017086574            0    369.99829 0.00024666325 
  286000     24175881 -0.0017086659            0    369.99829 0.00024666325 
  287000     24175881 -0.0017086744            0    369.99829 0.00024666325 
  288000     24175881 -0.0017086829            0    369.99829 0.00024666325 
  289000     24175881 -0.0017086915            0    369.99829 0.00024666325 
  290000     24175881 -0.0017087001            0    369.99829 0.00024666325 
  291000     24175881 -0.0017087088            0    369.99829 0.00024666325 
  292000     24175881 -0.0017087174            0    369.99829 0.00024666325 
  293000     24175881 -0.0017087261            0    369.99829 0.00024666325 
  294000     24175881 -0.0017087349            0    369.99829 0.00024666325 
  295000     24175881 -0.0017087436            0    369.99829 0.00024666325 
  296000     24175881 -0.0017087524            0    369.99829 0.00024666325 
  297000     24175881 -0.0017087613            0    369.99829 0.00024666325 
  298000     24175881 -0.0017087701            0    369.99829 0.00024666325 
  299000     24175881 -0.001708779            0    369.99829 0.00024666325 
  300000     24175881 -0.0017087879            0    369.99829 0.00024666325 
  301000     24175881 -0.0017087968            0    369.99829 0.00024666325 
  302000     24175881 -0.0017088058            0    369.99829 0.00024666325 
  303000     24175881 -0.0017088148            0    369.99829 0.00024666325 
  304000     24175881 -0.0017088238            0    369.99829 0.00024666325 
  305000     24175881 -0.0017088329            0    369.99829 0.00024666325 
  306000     24175881 -0.001708842            0    369.99829 0.00024666325 
  307000     24175881 -0.0017088511            0    369.99829 0.00024666325 
  308000     24175881 -0.0017088602            0    369.99829 0.00024666325 
  309000     24175881 -0.0017088694            0    369.99829 0.00024666325 
  310000     24175881 -0.0017088786            0    369.99829 0.00024666325 
  311000     24175881 -0.0017088879            0    369.99829 0.00024666325 
  312000     24175881 -0.0017088971            0    369.99829 0.00024666325 
  313000     24175881 -0.0017089064            0    369.99829 0.00024666325 
  314000     24175881 -0.0017089158            0    369.99829 0.00024666325 
  315000     24175881 -0.0017089251            0    369.99829 0.00024666325 
  316000     24175881 -0.0017089345            0    369.99829 0.00024666325 
  317000     24175881 -0.0017089439            0    369.99829 0.00024666325 
  318000     24175881 -0.0017089534            0    369.99829 0.00024666325 
  319000     24175881 -0.0017089629            0    369.99829 0.00024666325 
  320000     24175881 -0.0017089724            0    369.99829 0.00024666325 
  321000     24175881 -0.0017089819            0    369.99829 0.00024666325 
  322000     24175881 -0.0017089915            0    369.99829 0.00024666325 
  323000     24175881 -0.0017090011            0    369.99829 0.00024666325 
  324000     24175881 -0.0017090107            0    369.99829 0.00024666325 
  325000     24175881 -0.0017090204            0    369.99829 0.00024666325 
  326000     24175881  -0.00170903            0    369.99829 0.00024666325 
  327000     24175881 -0.0017090398            0    369.99829 0.00024666325 
  328000     24175881 -0.0017090495            0    369.99829 0.00024666325 
  329000     24175881 -0.0017090593            0    369.99829 0.00024666325 
  330000     24175881 -0.0017090691            0    369.99829 0.00024666325 
  331000     24175881 -0.0017090789            0    369.99829 0.00024666325 
  332000     24175881 -0.0017090888            0    369.99829 0.00024666325 
  333000     24175881 -0.0017090987            0    369.99829 0.00024666325 
  334000     24175881 -0.0017091086            0    369.99829 0.00024666325 
  335000     24175881 -0.0017091186            0    369.99829 0.00024666325 
  336000     24175881 -0.0017091285            0    369.99829 0.00024666325 
  337000     24175881 -0.0017091386            0    369.99829 0.00024666325 
  338000     24175881 -0.0017091486            0    369.99829 0.00024666325 
  339000     24175881 -0.0017091587            0    369.99829 0.00024666325 
  340000     24175881 -0.0017091688            0    369.99829 0.00024666325 
  341000     24175881 -0.0017091789            0    369.99829 0.00024666325 
  342000     24175881 -0.0017091891            0    369.99829 0.00024666325 
  343000     24175881 -0.0017091993            0    369.99829 0.00024666325 
  344000     24175881 -0.0017092095            0    369.99829 0.00024666325 
  345000     24175881 -0.0017092198            0    369.99829 0.00024666325 
  346000     24175881  -0.00170923            0    369.99829 0.00024666325 
  347000     24175881 -0.0017092404            0    369.99829 0.00024666325 
  348000     24175881 -0.0017092507            0    369.99829 0.00024666325 
  349000     24175881 -0.0017092611            0    369.99829 0.00024666325 
  350000     24175881 -0.0017092715            0    369.99829 0.00024666325 
  351000     24175881 -0.0017092819            0    369.99829 0.00024666325 
  352000     24175881 -0.0017092924            0    369.99829 0.00024666325 
  353000     24175881 -0.0017093029            0    369.99829 0.00024666325 
  354000     24175881 -0.0017093134            0    369.99829 0.00024666325 
  355000     24175881 -0.001709324            0    369.99829 0.00024666325 
  356000     24175881 -0.0017093345            0    369.99829 0.00024666325 
  357000     24175881 -0.0017093452            0    369.99829 0.00024666325 
  358000     24175881 -0.0017093558            0    369.99829 0.00024666325 
  359000     24175881 -0.0017093665            0    369.99829 0.00024666325 
  360000     24175881 -0.0017093772            0    369.99829 0.00024666325 
  361000     24175881 -0.0017093879            0    369.99829 0.00024666325 
  362000     24175881 -0.0017093987            0    369.99829 0.00024666325 
  363000     24175881 -0.0017094095            0    369.99829 0.00024666325 
  364000     24175881 -0.0017094203            0    369.99829 0.00024666325 
  365000     24175881 -0.0017094311            0    369.99829 0.00024666325 
  366000     24175881 -0.001709442            0    369.99829 0.00024666325 
  367000     24175881 -0.0017094529            0    369.99829 0.00024666325 
  368000     24175881 -0.0017094639            0    369.99829 0.00024666325 
  369000     24175881 -0.0017094748            0    369.99829 0.00024666325 
  370000     24175881 -0.0017094858            0    369.99829 0.00024666325 
  371000     24175881 -0.0017094969            0    369.99829 0.00024666325 
  372000     24175881 -0.0017095079            0    369.99829 0.00024666325 
  373000     24175881 -0.001709519            0    369.99829 0.00024666325 
  374000     24175881 -0.0017095302            0    369.99829 0.00024666325 
  375000     24175881 -0.0017095413            0    369.99829 0.00024666325 
  376000     24175881 -0.0017095525            0    369.99829 0.00024666325 
  377000     24175881 -0.0017095637            0    369.99829 0.00024666325 
  378000     24175881 -0.0017095749            0    369.99829 0.00024666325 
  379000     24175881 -0.0017095862            0    369.99829 0.00024666325 
  380000     24175881 -0.0017095975            0    369.99829 0.00024666325 
  381000     24175881 -0.0017096088            0    369.99829 0.00024666325 
  382000     24175881 -0.0017096202            0    369.99829 0.00024666325 
  383000     24175881 -0.0017096316            0    369.99829 0.00024666325 
  384000     24175881 -0.001709643            0    369.99829 0.00024666325 
  385000     24175881 -0.0017096545            0    369.99829 0.00024666325 
  386000     24175881 -0.001709666            0    369.99829 0.00024666325 
  387000     24175881 -0.0017096775            0    369.99829 0.00024666325 
  388000     24175881 -0.001709689            0    369.99829 0.00024666325 
  389000     24175881 -0.0017097006            0    369.99829 0.00024666325 
  390000     24175881 -0.0017097122            0    369.99829 0.00024666325 
  391000     24175881 -0.0017097238            0    369.99829 0.00024666325 
  392000     24175881 -0.0017097355            0    369.99829 0.00024666325 
  393000     24175881 -0.0017097472            0    369.99829 0.00024666325 
  394000     24175881 -0.0017097589            0    369.99829 0.00024666325 
  395000     24175881 -0.0017097706            0    369.99829 0.00024666325 
  396000     24175881 -0.0017097824            0    369.99829 0.00024666325 
  397000     24175881 -0.0017097942            0    369.99829 0.00024666325 
  398000     24175881 -0.0017098061            0    369.99829 0.00024666325 
  399000     24175881 -0.0017098179            0    369.99829 0.00024666325 
  400000     24175881 -0.0017098298            0    369.99829 0.00024666325 
  401000     24175881 -0.0017098418            0    369.99829 0.00024666325 
  402000     24175881 -0.0017098537            0    369.99829 0.00024666325 
  403000     24175881 -0.0017098657            0    369.99829 0.00024666325 
  404000     24175881 -0.0017098777            0    369.99829 0.00024666325 
  405000     24175881 -0.0017098898            0    369.99829 0.00024666325 
  406000     24175881 -0.0017099019            0    369.99829 0.00024666325 
  407000     24175881 -0.001709914            0    369.99829 0.00024666325 
  408000     24175881 -0.0017099261            0    369.99829 0.00024666325 
  409000     24175881 -0.0017099383            0    369.99829 0.00024666325 
  410000     24175881 -0.0017099505            0    369.99829 0.00024666325 
  411000     24175881 -0.0017099627            0    369.99829 0.00024666325 
  412000     24175881 -0.001709975            0    369.99829 0.00024666325 
  413000     24175881 -0.0017099873            0    369.99829 0.00024666325 
  414000     24175881 -0.0017099996            0    369.99829 0.00024666325 
  415000     24175881 -0.001710012            0    369.99829 0.00024666325 
  416000     24175881 -0.0017100243            0    369.99829 0.00024666325 
  417000     24175881 -0.0017100367            0    369.99829 0.00024666325 
  418000     24175881 -0.0017100492            0    369.99829 0.00024666325 
  419000     24175881 -0.0017100617            0    369.99829 0.00024666325 
  420000     24175881 -0.0017100742            0    369.99829 0.00024666325 
  421000     24175881 -0.0017100867            0    369.99829 0.00024666325 
  422000     24175881 -0.0017100992            0    369.99829 0.00024666325 
  423000     24175881 -0.0017101118            0    369.99829 0.00024666325 
  424000     24175881 -0.0017101245            0    369.99829 0.00024666325 
  425000     24175881 -0.0017101371            0    369.99829 0.00024666325 
  426000     24175881 -0.0017101498            0    369.99829 0.00024666325 
  427000     24175881 -0.0017101625            0    369.99829 0.00024666325 
  428000     24175881 -0.0017101752            0    369.99829 0.00024666325 
  429000     24175881 -0.001710188            0    369.99829 0.00024666325 
  430000     24175881 -0.0017102008            0    369.99829 0.00024666325 
  431000     24175881 -0.0017102136            0    369.99829 0.00024666325 
  432000     24175881 -0.0017102265            0    369.99829 0.00024666325 
  433000     24175881 -0.0017102394            0    369.99829 0.00024666325 
  434000     24175881 -0.0017102523            0    369.99829 0.00024666325 
  435000     24175881 -0.0017102653            0    369.99829 0.00024666325 
  436000     24175881 -0.0017102782            0    369.99829 0.00024666325 
  437000     24175881 -0.0017102913            0    369.99829 0.00024666325 
  438000     24175881 -0.0017103043            0    369.99829 0.00024666325 
  439000     24175881 -0.0017103174            0    369.99829 0.00024666325 
  440000     24175881 -0.0017103305            0    369.99829 0.00024666325 
  441000     24175881 -0.0017103436            0    369.99829 0.00024666325 
  442000     24175881 -0.0017103568            0    369.99829 0.00024666325 
  443000     24175881  -0.00171037            0    369.99829 0.00024666325 
  444000     24175881 -0.0017103832            0    369.99829 0.00024666325 
  445000     24175881 -0.0017103964            0    369.99829 0.00024666325 
  446000     24175881 -0.0017104097            0    369.99829 0.00024666325 
  447000     24175881 -0.001710423            0    369.99829 0.00024666325 
  448000     24175881 -0.0017104364            0    369.99829 0.00024666325 
  449000     24175881 -0.0017104497            0    369.99829 0.00024666325 
  450000     24175881 -0.0017104631            0    369.99829 0.00024666325 
  451000     24175881 -0.0017104766            0    369.99829 0.00024666325 
  452000     24175881  -0.00171049            0    369.99829 0.00024666325 
  453000     24175881 -0.0017105035            0    369.99829 0.00024666325 
  454000     24175881 -0.001710517            0    369.99829 0.00024666325 
  455000     24175881 -0.0017105306            0    369.99829 0.00024666325 
  456000     24175881 -0.0017105442            0    369.99829 0.00024666325 
  457000     24175881 -0.0017105578            0    369.99829 0.00024666325 
  458000     24175881 -0.0017105714            0    369.99829 0.00024666325 
  459000     24175881 -0.0017105851            0    369.99829 0.00024666325 
  460000     24175881 -0.0017105988            0    369.99829 0.00024666325 
  461000     24175881 -0.0017106125            0    369.99829 0.00024666325 
  462000     24175881 -0.0017106263            0    369.99829 0.00024666325 
  463000     24175881 -0.0017106401            0    369.99829 0.00024666325 
  464000     24175881 -0.0017106539            0    369.99829 0.00024666325 
  465000     24175881 -0.0017106678            0    369.99829 0.00024666325 
  466000     24175881 -0.0017106816            0    369.99829 0.00024666325 
  467000     24175881 -0.0017106955            0    369.99829 0.00024666325 
  468000     24175881 -0.0017107095            0    369.99829 0.00024666325 
  469000     24175881 -0.0017107235            0    369.99829 0.00024666325 
  470000     24175881 -0.0017107375            0    369.99829 0.00024666325 
  471000     24175881 -0.0017107515            0    369.99829 0.00024666325 
  472000     24175881 -0.0017107656            0    369.99829 0.00024666325 
  473000     24175881 -0.0017107797            0    369.99829 0.00024666325 
  474000     24175881 -0.0017107938            0    369.99829 0.00024666325 
  475000     24175881 -0.0017108079            0    369.99829 0.00024666325 
  476000     24175881 -0.0017108221            0    369.99829 0.00024666325 
  477000     24175881 -0.0017108363            0    369.99829 0.00024666325 
  478000     24175881 -0.0017108506            0    369.99829 0.00024666325 
  479000     24175881 -0.0017108648            0    369.99829 0.00024666325 
  480000     24175881 -0.0017108791            0    369.99829 0.00024666325 
  481000     24175881 -0.0017108935            0    369.99829 0.00024666325 
  482000     24175881 -0.0017109078            0    369.99829 0.00024666325 
  483000     24175881 -0.0017109222            0    369.99829 0.00024666325 
  484000     24175881 -0.0017109367            0    369.99829 0.00024666325 
  485000     24175881 -0.0017109511            0    369.99829 0.00024666325 
  486000     24175881 -0.0017109656            0    369.99829 0.00024666325 
  487000     24175881 -0.0017109801            0    369.99829 0.00024666325 
  488000     24175881 -0.0017109947            0    369.99829 0.00024666325 
  489000     24175881 -0.0017110092            0    369.99829 0.00024666325 
  490000     24175881 -0.0017110238            0    369.99829 0.00024666325 
  491000     24175881 -0.0017110385            0    369.99829 0.00024666325 
  492000     24175881 -0.0017110531            0    369.99829 0.00024666325 
  493000     24175881 -0.0017110678            0    369.99829 0.00024666325 
  494000     24175881 -0.0017110825            0    369.99829 0.00024666325 
  495000     24175881 -0.0017110973            0    369.99829 0.00024666325 
  496000     24175881 -0.0017111121            0    369.99829 0.00024666325 
  497000     24175881 -0.0017111269            0    369.99829 0.00024666325 
  498000     24175881 -0.0017111417            0    369.99829 0.00024666325 
  499000     24175881 -0.0017111566            0    369.99829 0.00024666325 
  500000     24175881 -0.0017111715            0    369.99829 0.00024666325 
  501000     24175881 -0.0017111865            0    369.99829 0.00024666325 
  502000     24175881 -0.0017112014            0    369.99829 0.00024666325 
  503000     24175881 -0.0017112164            0    369.99829 0.00024666325 
  504000     24175881 -0.0017112314            0    369.99829 0.00024666325 
  505000     24175881 -0.0017112465            0    369.99829 0.00024666325 
  506000     24175881 -0.0017112616            0    369.99829 0.00024666325 
  507000     24175881 -0.0017112767            0    369.99829 0.00024666325 
  508000     24175881 -0.0017112919            0    369.99829 0.00024666325 
  509000     24175881 -0.001711307            0    369.99829 0.00024666325 
  510000     24175881 -0.0017113222            0    369.99829 0.00024666325 
  511000     24175881 -0.0017113375            0    369.99829 0.00024666325 
  512000     24175881 -0.0017113527            0    369.99829 0.00024666325 
  513000     24175881 -0.001711368            0    369.99829 0.00024666325 
  514000     24175881 -0.0017113834            0    369.99829 0.00024666325 
  515000     24175881 -0.0017113987            0    369.99829 0.00024666325 
  516000     24175881 -0.0017114141            0    369.99829 0.00024666325 
  517000     24175881 -0.0017114295            0    369.99829 0.00024666325 
  518000     24175881 -0.001711445            0    369.99829 0.00024666325 
  519000     24175881 -0.0017114605            0    369.99829 0.00024666325 
  520000     24175881 -0.001711476            0    369.99829 0.00024666325 
  521000     24175881 -0.0017114915            0    369.99829 0.00024666325 
  522000     24175881 -0.0017115071            0    369.99829 0.00024666325 
  523000     24175881 -0.0017115227            0    369.99829 0.00024666325 
  524000     24175881 -0.0017115383            0    369.99829 0.00024666325 
  525000     24175881 -0.001711554            0    369.99829 0.00024666325 
  526000     24175881 -0.0017115696            0    369.99829 0.00024666325 
  527000     24175881 -0.0017115854            0    369.99829 0.00024666325 
  528000     24175881 -0.0017116011            0    369.99829 0.00024666325 
  529000     24175881 -0.0017116169            0    369.99829 0.00024666325 
  530000     24175881 -0.0017116327            0    369.99829 0.00024666325 
  531000     24175881 -0.0017116485            0    369.99829 0.00024666325 
  532000     24175881 -0.0017116644            0    369.99829 0.00024666325 
  533000     24175881 -0.0017116803            0    369.99829 0.00024666325 
  534000     24175881 -0.0017116962            0    369.99829 0.00024666325 
  535000     24175881 -0.0017117122            0    369.99829 0.00024666325 
  536000     24175881 -0.0017117282            0    369.99829 0.00024666325 
  537000     24175881 -0.0017117442            0    369.99829 0.00024666325 
  538000     24175881 -0.0017117603            0    369.99829 0.00024666325 
  539000     24175881 -0.0017117763            0    369.99829 0.00024666325 
  540000     24175881 -0.0017117925            0    369.99829 0.00024666325 
  541000     24175881 -0.0017118086            0    369.99829 0.00024666325 
  542000     24175881 -0.0017118248            0    369.99829 0.00024666325 
  543000     24175881 -0.001711841            0    369.99829 0.00024666325 
  544000     24175881 -0.0017118572            0    369.99829 0.00024666325 
  545000     24175881 -0.0017118735            0    369.99829 0.00024666325 
  546000     24175881 -0.0017118898            0    369.99829 0.00024666325 
  547000     24175881 -0.0017119061            0    369.99829 0.00024666325 
  548000     24175881 -0.0017119224            0    369.99829 0.00024666325 
  549000     24175881 -0.0017119388            0    369.99829 0.00024666325 
  550000     24175881 -0.0017119552            0    369.99829 0.00024666325 
  551000     24175881 -0.0017119717            0    369.99829 0.00024666325 
  552000     24175881 -0.0017119882            0    369.99829 0.00024666325 
  553000     24175881 -0.0017120047            0    369.99829 0.00024666325 
  554000     24175881 -0.0017120212            0    369.99829 0.00024666325 
  555000     24175881 -0.0017120378            0    369.99829 0.00024666325 
  556000     24175881 -0.0017120543            0    369.99829 0.00024666325 
  557000     24175881 -0.001712071            0    369.99829 0.00024666325 
  558000     24175881 -0.0017120876            0    369.99829 0.00024666325 
  559000     24175881 -0.0017121043            0    369.99829 0.00024666325 
  560000     24175881 -0.001712121            0    369.99829 0.00024666325 
  561000     24175881 -0.0017121378            0    369.99829 0.00024666325 
  562000     24175881 -0.0017121546            0    369.99829 0.00024666325 
  563000     24175881 -0.0017121714            0    369.99829 0.00024666325 
  564000     24175881 -0.0017121882            0    369.99829 0.00024666325 
  565000     24175881 -0.0017122051            0    369.99829 0.00024666325 
  566000     24175881 -0.001712222            0    369.99829 0.00024666325 
  567000     24175881 -0.0017122389            0    369.99829 0.00024666325 
  568000     24175881 -0.0017122558            0    369.99829 0.00024666325 
  569000     24175881 -0.0017122728            0    369.99829 0.00024666325 
  570000     24175881 -0.0017122899            0    369.99829 0.00024666325 
  571000     24175881 -0.0017123069            0    369.99829 0.00024666325 
  572000     24175881 -0.001712324            0    369.99829 0.00024666325 
  573000     24175881 -0.0017123411            0    369.99829 0.00024666325 
  574000     24175881 -0.0017123582            0    369.99829 0.00024666325 
  575000     24175881 -0.0017123754            0    369.99829 0.00024666325 
  576000     24175881 -0.0017123926            0    369.99829 0.00024666325 
  577000     24175881 -0.0017124098            0    369.99829 0.00024666325 
  578000     24175881 -0.0017124271            0    369.99829 0.00024666325 
  579000     24175881 -0.0017124444            0    369.99829 0.00024666325 
  580000     24175881 -0.0017124617            0    369.99829 0.00024666325 
  581000     24175881 -0.001712479            0    369.99829 0.00024666325 
  582000     24175881 -0.0017124964            0    369.99829 0.00024666325 
  583000     24175881 -0.0017125138            0    369.99829 0.00024666325 
  584000     24175881 -0.0017125313            0    369.99829 0.00024666324 
  585000     24175881 -0.0017125488            0    369.99829 0.00024666324 
  586000     24175881 -0.0017125663            0    369.99829 0.00024666324 
  587000     24175881 -0.0017125838            0    369.99829 0.00024666324 
  588000     24175881 -0.0017126014            0    369.99829 0.00024666324 
  589000     24175881 -0.0017126189            0    369.99829 0.00024666324 
  590000     24175881 -0.0017126366            0    369.99829 0.00024666324 
  591000     24175881 -0.0017126542            0    369.99829 0.00024666324 
  592000     24175881 -0.0017126719            0    369.99829 0.00024666324 
  593000     24175881 -0.0017126896            0    369.99829 0.00024666324 
  594000     24175881 -0.0017127074            0    369.99829 0.00024666324 
  595000     24175881 -0.0017127251            0    369.99829 0.00024666324 
  596000     24175881 -0.0017127429            0    369.99829 0.00024666324 
  597000     24175881 -0.0017127608            0    369.99829 0.00024666324 
  598000     24175881 -0.0017127787            0    369.99829 0.00024666324 
  599000     24175881 -0.0017127965            0    369.99829 0.00024666324 
  600000     24175881 -0.0017128145            0    369.99829 0.00024666324 
  601000     24175881 -0.0017128324            0    369.99829 0.00024666324 
  602000     24175881 -0.0017128504            0    369.99829 0.00024666324 
  603000     24175881 -0.0017128684            0    369.99829 0.00024666324 
  604000     24175881 -0.0017128865            0    369.99829 0.00024666324 
  605000     24175881 -0.0017129046            0    369.99829 0.00024666324 
  606000     24175881 -0.0017129227            0    369.99829 0.00024666324 
  607000     24175881 -0.0017129408            0    369.99829 0.00024666324 
  608000     24175881 -0.001712959            0    369.99829 0.00024666324 
  609000     24175881 -0.0017129772            0    369.99829 0.00024666324 
  610000     24175881 -0.0017129954            0    369.99829 0.00024666324 
  611000     24175881 -0.0017130137            0    369.99829 0.00024666324 
  612000     24175881 -0.001713032            0    369.99829 0.00024666324 
  613000     24175881 -0.0017130503            0    369.99829 0.00024666324 
  614000     24175881 -0.0017130686            0    369.99829 0.00024666324 
  615000     24175881 -0.001713087            0    369.99829 0.00024666324 
  616000     24175881 -0.0017131054            0    369.99829 0.00024666324 
  617000     24175881 -0.0017131239            0    369.99829 0.00024666324 
  618000     24175881 -0.0017131423            0    369.99829 0.00024666324 
  619000     24175881 -0.0017131608            0    369.99829 0.00024666324 
  620000     24175881 -0.0017131794            0    369.99829 0.00024666324 
  621000     24175881 -0.0017131979            0    369.99829 0.00024666324 
  622000     24175881 -0.0017132165            0    369.99829 0.00024666324 
  623000     24175881 -0.0017132352            0    369.99829 0.00024666324 
  624000     24175881 -0.0017132538            0    369.99829 0.00024666324 
  625000     24175881 -0.0017132725            0    369.99829 0.00024666324 
  626000     24175881 -0.0017132912            0    369.99829 0.00024666324 
  627000     24175881  -0.00171331            0    369.99829 0.00024666324 
  628000     24175881 -0.0017133287            0    369.99829 0.00024666324 
  629000     24175881 -0.0017133475            0    369.99829 0.00024666324 
  630000     24175881 -0.0017133664            0    369.99829 0.00024666324 
  631000     24175881 -0.0017133852            0    369.99829 0.00024666324 
  632000     24175881 -0.0017134041            0    369.99829 0.00024666324 
  633000     24175881 -0.0017134231            0    369.99829 0.00024666324 
  634000     24175881 -0.001713442            0    369.99829 0.00024666324 
  635000     24175881 -0.001713461            0    369.99829 0.00024666324 
  636000     24175881  -0.00171348            0    369.99829 0.00024666324 
  637000     24175881 -0.0017134991            0    369.99829 0.00024666324 
  638000     24175881 -0.0017135182            0    369.99829 0.00024666324 
  639000     24175881 -0.0017135373            0    369.99829 0.00024666324 
  640000     24175881 -0.0017135564            0    369.99829 0.00024666324 
  641000     24175881 -0.0017135756            0    369.99829 0.00024666324 
  642000     24175881 -0.0017135948            0    369.99829 0.00024666324 
  643000     24175881 -0.001713614            0    369.99829 0.00024666324 
  644000     24175881 -0.0017136333            0    369.99829 0.00024666324 
  645000     24175881 -0.0017136526            0    369.99829 0.00024666324 
  646000     24175881 -0.0017136719            0    369.99829 0.00024666324 
  647000     24175881 -0.0017136913            0    369.99829 0.00024666324 
  648000     24175881 -0.0017137106            0    369.99829 0.00024666324 
  649000     24175881 -0.0017137301            0    369.99829 0.00024666324 
  650000     24175881 -0.0017137495            0    369.99829 0.00024666324 
  651000     24175881 -0.001713769            0    369.99829 0.00024666324 
  652000     24175881 -0.0017137885            0    369.99829 0.00024666324 
  653000     24175881 -0.001713808            0    369.99829 0.00024666324 
  654000     24175881 -0.0017138276            0    369.99829 0.00024666324 
  655000     24175881 -0.0017138472            0    369.99829 0.00024666324 
  656000     24175881 -0.0017138668            0    369.99829 0.00024666324 
  657000     24175881 -0.0017138865            0    369.99829 0.00024666324 
  658000     24175881 -0.0017139062            0    369.99829 0.00024666324 
  659000     24175881 -0.0017139259            0    369.99829 0.00024666324 
  660000     24175881 -0.0017139456            0    369.99829 0.00024666324 
  661000     24175881 -0.0017139654            0    369.99829 0.00024666324 
  662000     24175881 -0.0017139852            0    369.99829 0.00024666324 
  663000     24175881 -0.001714005            0    369.99829 0.00024666324 
  664000     24175881 -0.0017140249            0    369.99829 0.00024666324 
  665000     24175881 -0.0017140448            0    369.99829 0.00024666324 
  666000     24175881 -0.0017140648            0    369.99829 0.00024666324 
  667000     24175881 -0.0017140847            0    369.99829 0.00024666324 
  668000     24175881 -0.0017141047            0    369.99829 0.00024666324 
  669000     24175881 -0.0017141247            0    369.99829 0.00024666324 
  670000     24175881 -0.0017141448            0    369.99829 0.00024666324 
  671000     24175881 -0.0017141649            0    369.99829 0.00024666324 
  672000     24175881 -0.001714185            0    369.99829 0.00024666324 
  673000     24175881 -0.0017142051            0    369.99829 0.00024666324 
  674000     24175881 -0.0017142253            0    369.99829 0.00024666324 
  675000     24175881 -0.0017142455            0    369.99829 0.00024666324 
  676000     24175881 -0.0017142657            0    369.99829 0.00024666324 
  677000     24175881 -0.001714286            0    369.99829 0.00024666324 
  678000     24175881 -0.0017143063            0    369.99829 0.00024666324 
  679000     24175881 -0.0017143266            0    369.99829 0.00024666324 
  680000     24175881 -0.001714347            0    369.99829 0.00024666324 
  681000     24175881 -0.0017143674            0    369.99829 0.00024666324 
  682000     24175881 -0.0017143878            0    369.99829 0.00024666324 
  683000     24175881 -0.0017144083            0    369.99829 0.00024666324 
  684000     24175881 -0.0017144287            0    369.99829 0.00024666324 
  685000     24175881 -0.0017144492            0    369.99829 0.00024666324 
  686000     24175881 -0.0017144698            0    369.99829 0.00024666324 
  687000     24175881 -0.0017144904            0    369.99829 0.00024666324 
  688000     24175881 -0.001714511            0    369.99829 0.00024666324 
  689000     24175881 -0.0017145316            0    369.99829 0.00024666324 
  690000     24175881 -0.0017145523            0    369.99829 0.00024666324 
  691000     24175881 -0.001714573            0    369.99829 0.00024666324 
  692000     24175881 -0.0017145937            0    369.99829 0.00024666324 
  693000     24175881 -0.0017146144            0    369.99829 0.00024666324 
  694000     24175881 -0.0017146352            0    369.99829 0.00024666324 
  695000     24175881 -0.001714656            0    369.99829 0.00024666324 
  696000     24175881 -0.0017146769            0    369.99829 0.00024666324 
  697000     24175881 -0.0017146978            0    369.99829 0.00024666324 
  698000     24175881 -0.0017147187            0    369.99829 0.00024666324 
  699000     24175881 -0.0017147396            0    369.99829 0.00024666324 
  700000     24175881 -0.0017147606            0    369.99829 0.00024666324 
  701000     24175881 -0.0017147816            0    369.99829 0.00024666324 
  702000     24175881 -0.0017148026            0    369.99829 0.00024666324 
  703000     24175881 -0.0017148237            0    369.99829 0.00024666324 
  704000     24175881 -0.0017148447            0    369.99829 0.00024666324 
  705000     24175881 -0.0017148659            0    369.99829 0.00024666324 
  706000     24175881 -0.001714887            0    369.99829 0.00024666324 
  707000     24175881 -0.0017149082            0    369.99829 0.00024666324 
  708000     24175881 -0.0017149294            0    369.99829 0.00024666324 
  709000     24175881 -0.0017149507            0    369.99829 0.00024666324 
  710000     24175881 -0.0017149719            0    369.99829 0.00024666324 
  711000     24175881 -0.0017149932            0    369.99829 0.00024666324 
  712000     24175881 -0.0017150146            0    369.99829 0.00024666324 
  713000     24175881 -0.0017150359            0    369.99829 0.00024666324 
  714000     24175881 -0.0017150573            0    369.99829 0.00024666324 
  715000     24175881 -0.0017150788            0    369.99829 0.00024666324 
  716000     24175881 -0.0017151002            0    369.99829 0.00024666324 
  717000     24175881 -0.0017151217            0    369.99829 0.00024666324 
  718000     24175881 -0.0017151432            0    369.99829 0.00024666324 
  719000     24175881 -0.0017151648            0    369.99829 0.00024666324 
  720000     24175881 -0.0017151864            0    369.99829 0.00024666324 
  721000     24175881 -0.001715208            0    369.99829 0.00024666324 
  722000     24175881 -0.0017152296            0    369.99829 0.00024666324 
  723000     24175881 -0.0017152513            0    369.99829 0.00024666324 
  724000     24175881 -0.001715273            0    369.99829 0.00024666324 
  725000     24175881 -0.0017152947            0    369.99829 0.00024666324 
  726000     24175881 -0.0017153165            0    369.99829 0.00024666324 
  727000     24175881 -0.0017153383            0    369.99829 0.00024666324 
  728000     24175881 -0.0017153601            0    369.99829 0.00024666324 
  729000     24175881 -0.0017153819            0    369.99829 0.00024666324 
  730000     24175881 -0.0017154038            0    369.99829 0.00024666324 
  731000     24175881 -0.0017154258            0    369.99829 0.00024666324 
  732000     24175881 -0.0017154477            0    369.99829 0.00024666324 
  733000     24175881 -0.0017154697            0    369.99829 0.00024666324 
  734000     24175881 -0.0017154917            0    369.99829 0.00024666324 
  735000     24175881 -0.0017155137            0    369.99829 0.00024666324 
  736000     24175881 -0.0017155358            0    369.99829 0.00024666324 
  737000     24175881 -0.0017155579            0    369.99829 0.00024666324 
  738000     24175881  -0.00171558            0    369.99829 0.00024666324 
  739000     24175881 -0.0017156022            0    369.99829 0.00024666324 
  740000     24175881 -0.0017156244            0    369.99829 0.00024666324 
  741000     24175881 -0.0017156466            0    369.99829 0.00024666324 
  742000     24175881 -0.0017156689            0    369.99829 0.00024666324 
  743000     24175881 -0.0017156911            0    369.99829 0.00024666324 
  744000     24175881 -0.0017157134            0    369.99829 0.00024666324 
  745000     24175881 -0.0017157358            0    369.99829 0.00024666324 
  746000     24175881 -0.0017157582            0    369.99829 0.00024666324 
  747000     24175881 -0.0017157806            0    369.99829 0.00024666324 
  748000     24175881 -0.001715803            0    369.99829 0.00024666324 
  749000     24175881 -0.0017158255            0    369.99829 0.00024666324 
  750000     24175881 -0.001715848            0    369.99829 0.00024666324 
  751000     24175881 -0.0017158705            0    369.99829 0.00024666324 
  752000     24175881 -0.0017158931            0    369.99829 0.00024666324 
  753000     24175881 -0.0017159157            0    369.99829 0.00024666324 
  754000     24175881 -0.0017159383            0    369.99829 0.00024666324 
  755000     24175881 -0.0017159609            0    369.99829 0.00024666324 
  756000     24175881 -0.0017159836            0    369.99829 0.00024666324 
  757000     24175881 -0.0017160063            0    369.99829 0.00024666324 
  758000     24175881 -0.0017160291            0    369.99829 0.00024666324 
  759000     24175881 -0.0017160518            0    369.99829 0.00024666324 
  760000     24175881 -0.0017160747            0    369.99829 0.00024666324 
  761000     24175881 -0.0017160975            0    369.99829 0.00024666324 
  762000     24175881 -0.0017161204            0    369.99829 0.00024666324 
  763000     24175881 -0.0017161432            0    369.99829 0.00024666324 
  764000     24175881 -0.0017161662            0    369.99829 0.00024666324 
  765000     24175881 -0.0017161891            0    369.99829 0.00024666324 
  766000     24175881 -0.0017162121            0    369.99829 0.00024666324 
  767000     24175881 -0.0017162351            0    369.99829 0.00024666324 
  768000     24175881 -0.0017162582            0    369.99829 0.00024666324 
  769000     24175881 -0.0017162813            0    369.99829 0.00024666324 
  770000     24175881 -0.0017163044            0    369.99829 0.00024666324 
  771000     24175881 -0.0017163275            0    369.99829 0.00024666324 
  772000     24175881 -0.0017163507            0    369.99829 0.00024666324 
  773000     24175881 -0.0017163739            0    369.99829 0.00024666324 
  774000     24175881 -0.0017163971            0    369.99829 0.00024666324 
  775000     24175881 -0.0017164204            0    369.99829 0.00024666324 
  776000     24175881 -0.0017164437            0    369.99829 0.00024666324 
  777000     24175881 -0.001716467            0    369.99829 0.00024666324 
  778000     24175881 -0.0017164904            0    369.99829 0.00024666324 
  779000     24175881 -0.0017165138            0    369.99829 0.00024666324 
  780000     24175881 -0.0017165372            0    369.99829 0.00024666324 
  781000     24175881 -0.0017165606            0    369.99829 0.00024666324 
  782000     24175881 -0.0017165841            0    369.99829 0.00024666324 
  783000     24175881 -0.0017166076            0    369.99829 0.00024666324 
  784000     24175881 -0.0017166312            0    369.99829 0.00024666324 
  785000     24175881 -0.0017166548            0    369.99829 0.00024666324 
  786000     24175881 -0.0017166784            0    369.99829 0.00024666324 
  787000     24175881 -0.001716702            0    369.99829 0.00024666324 
  788000     24175881 -0.0017167257            0    369.99829 0.00024666324 
  789000     24175881 -0.0017167494            0    369.99829 0.00024666324 
  790000     24175881 -0.0017167731            0    369.99829 0.00024666324 
  791000     24175881 -0.0017167968            0    369.99829 0.00024666324 
  792000     24175881 -0.0017168206            0    369.99829 0.00024666324 
  793000     24175881 -0.0017168444            0    369.99829 0.00024666324 
  794000     24175881 -0.0017168683            0    369.99829 0.00024666324 
  795000     24175881 -0.0017168922            0    369.99829 0.00024666324 
  796000     24175881 -0.0017169161            0    369.99829 0.00024666324 
  797000     24175881  -0.00171694            0    369.99829 0.00024666324 
  798000     24175881 -0.001716964            0    369.99829 0.00024666324 
  799000     24175881 -0.001716988            0    369.99829 0.00024666324 
  800000     24175881 -0.001717012            0    369.99829 0.00024666324 
  801000     24175881 -0.0017170361            0    369.99829 0.00024666324 
  802000     24175881 -0.0017170602            0    369.99829 0.00024666324 
  803000     24175881 -0.0017170843            0    369.99829 0.00024666324 
  804000     24175881 -0.0017171085            0    369.99829 0.00024666324 
  805000     24175881 -0.0017171327            0    369.99829 0.00024666324 
  806000     24175881 -0.0017171569            0    369.99829 0.00024666324 
  807000     24175881 -0.0017171812            0    369.99829 0.00024666324 
  808000     24175881 -0.0017172054            0    369.99829 0.00024666324 
  809000     24175881 -0.0017172297            0    369.99829 0.00024666324 
  810000     24175881 -0.0017172541            0    369.99829 0.00024666324 
  811000     24175881 -0.0017172785            0    369.99829 0.00024666324 
  812000     24175881 -0.0017173029            0    369.99829 0.00024666324 
  813000     24175881 -0.0017173273            0    369.99829 0.00024666324 
  814000     24175881 -0.0017173518            0    369.99829 0.00024666324 
  815000     24175881 -0.0017173763            0    369.99829 0.00024666324 
  816000     24175881 -0.0017174008            0    369.99829 0.00024666324 
  817000     24175881 -0.0017174253            0    369.99829 0.00024666324 
  818000     24175881 -0.0017174499            0    369.99829 0.00024666324 
  819000     24175881 -0.0017174746            0    369.99829 0.00024666324 
  820000     24175881 -0.0017174992            0    369.99829 0.00024666324 
  821000     24175881 -0.0017175239            0    369.99829 0.00024666324 
  822000     24175881 -0.0017175486            0    369.99829 0.00024666324 
  823000     24175881 -0.0017175733            0    369.99829 0.00024666324 
  824000     24175881 -0.0017175981            0    369.99829 0.00024666324 
  825000     24175881 -0.0017176229            0    369.99829 0.00024666324 
  826000     24175881 -0.0017176478            0    369.99829 0.00024666324 
  827000     24175881 -0.0017176726            0    369.99829 0.00024666324 
  828000     24175881 -0.0017176975            0    369.99829 0.00024666324 
  829000     24175881 -0.0017177225            0    369.99829 0.00024666324 
  830000     24175881 -0.0017177474            0    369.99829 0.00024666324 
  831000     24175881 -0.0017177724            0    369.99829 0.00024666324 
  832000     24175881 -0.0017177974            0    369.99829 0.00024666324 
  833000     24175881 -0.0017178225            0    369.99829 0.00024666324 
  834000     24175881 -0.0017178476            0    369.99829 0.00024666324 
  835000     24175881 -0.0017178727            0    369.99829 0.00024666324 
  836000     24175881 -0.0017178978            0    369.99829 0.00024666324 
  837000     24175881 -0.001717923            0    369.99829 0.00024666324 
  838000     24175881 -0.0017179482            0    369.99829 0.00024666324 
  839000     24175881 -0.0017179734            0    369.99829 0.00024666324 
  840000     24175881 -0.0017179987            0    369.99829 0.00024666324 
  841000     24175881 -0.001718024            0    369.99829 0.00024666324 
  842000     24175881 -0.0017180493            0    369.99829 0.00024666324 
  843000     24175881 -0.0017180747            0    369.99829 0.00024666324 
  844000     24175881 -0.0017181001            0    369.99829 0.00024666324 
  845000     24175881 -0.0017181255            0    369.99829 0.00024666324 
  846000     24175881 -0.001718151            0    369.99829 0.00024666324 
  847000     24175881 -0.0017181765            0    369.99829 0.00024666324 
  848000     24175881 -0.001718202            0    369.99829 0.00024666324 
  849000     24175881 -0.0017182275            0    369.99829 0.00024666324 
  850000     24175881 -0.0017182531            0    369.99829 0.00024666324 
  851000     24175881 -0.0017182787            0    369.99829 0.00024666324 
  852000     24175881 -0.0017183043            0    369.99829 0.00024666324 
  853000     24175881  -0.00171833            0    369.99829 0.00024666324 
  854000     24175881 -0.0017183557            0    369.99829 0.00024666324 
  855000     24175881 -0.0017183815            0    369.99829 0.00024666324 
  856000     24175881 -0.0017184072            0    369.99829 0.00024666324 
  857000     24175881 -0.001718433            0    369.99829 0.00024666324 
  858000     24175881 -0.0017184588            0    369.99829 0.00024666324 
  859000     24175881 -0.0017184847            0    369.99829 0.00024666324 
  860000     24175881 -0.0017185106            0    369.99829 0.00024666324 
  861000     24175881 -0.0017185365            0    369.99829 0.00024666324 
  862000     24175881 -0.0017185624            0    369.99829 0.00024666324 
  863000     24175881 -0.0017185884            0    369.99829 0.00024666324 
  864000     24175881 -0.0017186144            0    369.99829 0.00024666324 
  865000     24175881 -0.0017186405            0    369.99829 0.00024666324 
  866000     24175881 -0.0017186666            0    369.99829 0.00024666324 
  867000     24175881 -0.0017186927            0    369.99829 0.00024666324 
  868000     24175881 -0.0017187188            0    369.99829 0.00024666324 
  869000     24175881 -0.001718745            0    369.99829 0.00024666324 
  870000     24175881 -0.0017187712            0    369.99829 0.00024666324 
  871000     24175881 -0.0017187974            0    369.99829 0.00024666324 
  872000     24175881 -0.0017188236            0    369.99829 0.00024666324 
  873000     24175881 -0.0017188499            0    369.99829 0.00024666324 
  874000     24175881 -0.0017188763            0    369.99829 0.00024666324 
  875000     24175881 -0.0017189026            0    369.99829 0.00024666324 
  876000     24175881 -0.001718929            0    369.99829 0.00024666324 
  877000     24175881 -0.0017189554            0    369.99829 0.00024666324 
  878000     24175881 -0.0017189819            0    369.99829 0.00024666324 
  879000     24175881 -0.0017190083            0    369.99829 0.00024666324 
  880000     24175881 -0.0017190348            0    369.99829 0.00024666324 
  881000     24175881 -0.0017190614            0    369.99829 0.00024666324 
  882000     24175881 -0.0017190879            0    369.99829 0.00024666324 
  883000     24175881 -0.0017191145            0    369.99829 0.00024666324 
  884000     24175881 -0.0017191412            0    369.99829 0.00024666324 
  885000     24175881 -0.0017191678            0    369.99829 0.00024666324 
  886000     24175881 -0.0017191945            0    369.99829 0.00024666324 
  887000     24175881 -0.0017192213            0    369.99829 0.00024666324 
  888000     24175881 -0.001719248            0    369.99829 0.00024666324 
  889000     24175881 -0.0017192748            0    369.99829 0.00024666324 
  890000     24175881 -0.0017193016            0    369.99829 0.00024666324 
  891000     24175881 -0.0017193285            0    369.99829 0.00024666324 
  892000     24175881 -0.0017193553            0    369.99829 0.00024666324 
  893000     24175881 -0.0017193823            0    369.99829 0.00024666324 
  894000     24175881 -0.0017194092            0    369.99829 0.00024666324 
  895000     24175881 -0.0017194362            0    369.99829 0.00024666324 
  896000     24175881 -0.0017194632            0    369.99829 0.00024666324 
  897000     24175881 -0.0017194902            0    369.99829 0.00024666324 
  898000     24175881 -0.0017195173            0    369.99829 0.00024666324 
  899000     24175881 -0.0017195444            0    369.99829 0.00024666324 
  900000     24175881 -0.0017195715            0    369.99829 0.00024666324 
  901000     24175881 -0.0017195987            0    369.99829 0.00024666324 
  902000     24175881 -0.0017196259            0    369.99829 0.00024666324 
  903000     24175881 -0.0017196531            0    369.99829 0.00024666324 
  904000     24175881 -0.0017196803            0    369.99829 0.00024666324 
  905000     24175881 -0.0017197076            0    369.99829 0.00024666324 
  906000     24175881 -0.0017197349            0    369.99829 0.00024666324 
  907000     24175881 -0.0017197623            0    369.99829 0.00024666324 
  908000     24175881 -0.0017197896            0    369.99829 0.00024666324 
  909000     24175881 -0.0017198171            0    369.99829 0.00024666324 
  910000     24175881 -0.0017198445            0    369.99829 0.00024666324 
  911000     24175881 -0.001719872            0    369.99829 0.00024666324 
  912000     24175881 -0.0017198995            0    369.99829 0.00024666324 
  913000     24175881 -0.001719927            0    369.99829 0.00024666324 
  914000     24175881 -0.0017199546            0    369.99829 0.00024666324 
  915000     24175881 -0.0017199822            0    369.99829 0.00024666324 
  916000     24175882 -0.0017200098            0    369.99829 0.00024666324 
  917000     24175882 -0.0017200374            0    369.99829 0.00024666323 
  918000     24175882 -0.0017200651            0    369.99829 0.00024666323 
  919000     24175882 -0.0017200929            0    369.99829 0.00024666323 
  920000     24175882 -0.0017201206            0    369.99829 0.00024666323 
  921000     24175882 -0.0017201484            0    369.99829 0.00024666323 
  922000     24175882 -0.0017201762            0    369.99829 0.00024666323 
  923000     24175882 -0.001720204            0    369.99829 0.00024666323 
  924000     24175882 -0.0017202319            0    369.99829 0.00024666323 
  925000     24175882 -0.0017202598            0    369.99829 0.00024666323 
  926000     24175882 -0.0017202878            0    369.99829 0.00024666323 
  927000     24175882 -0.0017203157            0    369.99829 0.00024666323 
  928000     24175882 -0.0017203437            0    369.99829 0.00024666323 
  929000     24175882 -0.0017203718            0    369.99829 0.00024666323 
  930000     24175882 -0.0017203998            0    369.99829 0.00024666323 
  931000     24175882 -0.0017204279            0    369.99829 0.00024666323 
  932000     24175882 -0.001720456            0    369.99829 0.00024666323 
  933000     24175882 -0.0017204842            0    369.99829 0.00024666323 
  934000     24175882 -0.0017205124            0    369.99829 0.00024666323 
  935000     24175882 -0.0017205406            0    369.99829 0.00024666323 
  936000     24175882 -0.0017205689            0    369.99829 0.00024666323 
  937000     24175882 -0.0017205971            0    369.99829 0.00024666323 
  938000     24175882 -0.0017206255            0    369.99829 0.00024666323 
  939000     24175882 -0.0017206538            0    369.99829 0.00024666323 
  940000     24175882 -0.0017206822            0    369.99829 0.00024666323 
  941000     24175882 -0.0017207106            0    369.99829 0.00024666323 
  942000     24175882 -0.001720739            0    369.99829 0.00024666323 
  943000     24175882 -0.0017207675            0    369.99829 0.00024666323 
  944000     24175882 -0.001720796            0    369.99829 0.00024666323 
  945000     24175882 -0.0017208245            0    369.99829 0.00024666323 
  946000     24175882 -0.0017208531            0    369.99829 0.00024666323 
  947000     24175882 -0.0017208817            0    369.99829 0.00024666323 
  948000     24175882 -0.0017209103            0    369.99829 0.00024666323 
  949000     24175882 -0.0017209389            0    369.99829 0.00024666323 
  950000     24175882 -0.0017209676            0    369.99829 0.00024666323 
  951000     24175882 -0.0017209964            0    369.99829 0.00024666323 
  952000     24175882 -0.0017210251            0    369.99829 0.00024666323 
  953000     24175882 -0.0017210539            0    369.99829 0.00024666323 
  954000     24175882 -0.0017210827            0    369.99829 0.00024666323 
  955000     24175882 -0.0017211115            0    369.99829 0.00024666323 
  956000     24175882 -0.0017211404            0    369.99829 0.00024666323 
  957000     24175882 -0.0017211693            0    369.99829 0.00024666323 
  958000     24175882 -0.0017211983            0    369.99829 0.00024666323 
  959000     24175882 -0.0017212272            0    369.99829 0.00024666323 
  960000     24175882 -0.0017212562            0    369.99829 0.00024666323 
  961000     24175882 -0.0017212853            0    369.99829 0.00024666323 
  962000     24175882 -0.0017213143            0    369.99829 0.00024666323 
  963000     24175882 -0.0017213434            0    369.99829 0.00024666323 
  964000     24175882 -0.0017213725            0    369.99829 0.00024666323 
  965000     24175882 -0.0017214017            0    369.99829 0.00024666323 
  966000     24175882 -0.0017214309            0    369.99829 0.00024666323 
  967000     24175882 -0.0017214601            0    369.99829 0.00024666323 
  968000     24175882 -0.0017214893            0    369.99829 0.00024666323 
  969000     24175882 -0.0017215186            0    369.99829 0.00024666323 
  970000     24175882 -0.0017215479            0    369.99829 0.00024666323 
  971000     24175882 -0.0017215773            0    369.99829 0.00024666323 
  972000     24175882 -0.0017216067            0    369.99829 0.00024666323 
  973000     24175882 -0.0017216361            0    369.99829 0.00024666323 
  974000     24175882 -0.0017216655            0    369.99829 0.00024666323 
  975000     24175882 -0.001721695            0    369.99829 0.00024666323 
  976000     24175882 -0.0017217245            0    369.99829 0.00024666323 
  977000     24175882 -0.001721754            0    369.99829 0.00024666323 
  978000     24175882 -0.0017217836            0    369.99829 0.00024666323 
  979000     24175882 -0.0017218132            0    369.99829 0.00024666323 
  980000     24175882 -0.0017218428            0    369.99829 0.00024666323 
  981000     24175882 -0.0017218724            0    369.99829 0.00024666323 
  982000     24175882 -0.0017219021            0    369.99829 0.00024666323 
  983000     24175882 -0.0017219319            0    369.99829 0.00024666323 
  984000     24175882 -0.0017219616            0    369.99829 0.00024666323 
  985000     24175882 -0.0017219914            0    369.99829 0.00024666323 
  986000     24175882 -0.0017220212            0    369.99829 0.00024666323 
  987000     24175882 -0.001722051            0    369.99829 0.00024666323 
  988000     24175882 -0.0017220809            0    369.99829 0.00024666323 
  989000     24175882 -0.0017221108            0    369.99829 0.00024666323 
  990000     24175882 -0.0017221408            0    369.99829 0.00024666323 
  991000     24175882 -0.0017221707            0    369.99829 0.00024666323 
  992000     24175882 -0.0017222007            0    369.99829 0.00024666323 
  993000     24175882 -0.0017222308            0    369.99829 0.00024666323 
  994000     24175882 -0.0017222608            0    369.99829 0.00024666323 
  995000     24175882 -0.0017222909            0    369.99829 0.00024666323 
  996000     24175882 -0.0017223211            0    369.99829 0.00024666323 
  997000     24175882 -0.0017223512            0    369.99829 0.00024666323 
  998000     24175882 -0.0017223814            0    369.99829 0.00024666323 
  999000     24175882 -0.0017224116            0    369.99829 0.00024666323 
 1000000     24175882 -0.0017224419            0    369.99829 0.00024666323 
Loop time of 33.7388 on 1 procs for 1000000 steps with 740 atoms

Performance: 25608490.590 ns/day, 0.000 hours/ns, 29639.457 timesteps/s
94.2% CPU use with 1 MPI tasks x 1 OpenMP threads

MPI task timing breakdown:
Section |  min time  |  avg time  |  max time  |%varavg| %total
---------------------------------------------------------------
Pair    | 24.469     | 24.469     | 24.469     |   0.0 | 72.52
Bond    | 0.18215    | 0.18215    | 0.18215    |   0.0 |  0.54
Neigh   | 0.0062978  | 0.0062978  | 0.0062978  |   0.0 |  0.02
Comm    | 0.3446     | 0.3446     | 0.3446     |   0.0 |  1.02
Output  | 1.1329     | 1.1329     | 1.1329     |   0.0 |  3.36
Modify  | 6.0182     | 6.0182     | 6.0182     |   0.0 | 17.84
Other   |            | 1.586      |            |       |  4.70

Nlocal:        740.000 ave         740 max         740 min
Histogram: 1 0 0 0 0 0 0 0 0 0
Nghost:        0.00000 ave           0 max           0 min
Histogram: 1 0 0 0 0 0 0 0 0 0
Neighs:        5324.00 ave        5324 max        5324 min
Histogram: 1 0 0 0 0 0 0 0 0 0

Total # of neighbors = 5324
Ave neighs/atom = 7.1945946
Ave special neighs/atom = 0.0000000
Neighbor list builds = 20
Dangerous builds = 0
Total wall time: 0:00:33
