LAMMPS (2 Jun 2020)
OMP_NUM_THREADS environment is not set. Defaulting to 1 thread. (src/comm.cpp:95)
  using 1 OpenMP thread(s) per MPI task
##############################################################################################################################
# in.Potential_Test_TEMPLATE
#
# By: John Quinn
#
# Date: 9/21/2020
#
###############################################################################################################################

units				lj

atom_style			molecular

dimension			3

boundary 			p p p

read_data			Soft_Ball_V18.data
  orthogonal box = (0.0 0.0 0.0) to (100.0 100.0 100.0)
  1 by 1 by 1 MPI processor grid
  reading atoms ...
  31103 atoms
  0 = max # of 1-2 neighbors
  0 = max # of 1-3 neighbors
  0 = max # of 1-4 neighbors
  1 = max # of special neighbors
  special bonds CPU = 0.00492 secs
  read_data CPU = 0.024 secs

neighbor			1.0 bin
neigh_modify		delay 0 every 1 check yes

comm_modify cutoff 	6.5

mass				* 1.0

angle_style 		harmonic
angle_coeff 		1 10 10

dihedral_style 		harmonic
dihedral_coeff 		1 80.0 1 2

bond_style			harmonic
bond_coeff			1 50 1.2

pair_style 			lj/cut 2.5

pair_coeff 			1 1 1 1

timestep			0.00001

thermo				1000

dump 				1 all atom 500 dump.jq_test_wdihedral

fix 				1 all nve

fix 				2 all npt temp 300.0 300.0 100.0 iso 0.0 0.0 1000.0

fix 				3 all bond/create 10 1 1 0.8 1 atype 1 dtype 1


run					1000000
WARNING: One or more atoms are time integrated more than once (src/modify.cpp:284)
Neighbor list info ...
  update every 1 steps, delay 0 steps, check yes
  max neighbors/atom: 2000, page size: 100000
  master list distance cutoff = 3.5
  ghost atom cutoff = 6.5
  binsize = 1.75, bins = 58 58 58
  2 neighbor lists, perpetual/occasional/extra = 1 1 0
  (1) pair lj/cut, perpetual
      attributes: half, newton on
      pair build: half/bin/newton
      stencil: half/bin/3d/newton
      bin: standard
  (2) fix bond/create, occasional, copy from (1)
      attributes: half, newton on
      pair build: copy
      stencil: none
      bin: none
Per MPI rank memory allocation (min/avg/max) = 25.16 | 25.16 | 25.16 Mbytes
Step Temp E_pair E_mol TotEng Press Volume 
       0            0   -3.7341885            0   -3.7341885   0.50909507      1000000 
    1000  0.011889997   -3.7520184            0    -3.734184   0.50565475      1000000 
    2000   0.04024058   -3.7945397            0   -3.7341808   0.49691083      1000000 
    3000  0.073003437   -3.8418924            0   -3.7323907    0.4857499      1000000 
    4000   0.10485445    -3.886455            0   -3.7291784   0.47373431      1000000 
    5000   0.13545473   -3.9267999            0   -3.7236243   0.46142056      1000000 
    6000   0.16536144   -3.9688871            0   -3.7208529   0.44866154      1000000 
    7000    0.1950275   -4.0113562            0   -3.7188244   0.43567278      1000000 
    8000   0.22493159   -4.0508963            0   -3.7135097     0.422745      1000000 
    9000   0.25539452   -4.0922441            0   -3.7091646   0.40964339      1000000 
   10000   0.28659916    -4.134226            0   -3.7043411   0.39648721      1000000 
   11000   0.31864148   -4.1762053            0   -3.6982585   0.38335803      1000000 
   12000   0.35135371   -4.2203982            0   -3.6933846    0.3701555      1000000 
   13000   0.38447647   -4.2647913            0   -3.6880951   0.35701883      1000000 
   14000   0.41847645   -4.3105377            0   -3.6828432   0.34378372      1000000 
   15000   0.45541431   -4.3603127            0   -3.6772132    0.3300155      1000000 
   16000   0.49702196   -4.4166514            0   -3.6711424   0.31535438      1000000 
   17000   0.54180848   -4.4790424            0   -3.6663559   0.29998845      1000000 
   18000   0.58723592   -4.5419539            0   -3.6611284   0.28452838      1000000 
   19000   0.63438613   -4.6067816            0    -3.655233   0.26881204      1000000 
   20000   0.68252488   -4.6735198            0   -3.6497654   0.25291285      1000000 
   21000   0.72854853    -4.737261            0   -3.6444734   0.23743431      1000000 
   22000   0.77349244   -4.7993188            0   -3.6391174   0.22222281      1000000 
   23000   0.81810084   -4.8605575            0   -3.6334457   0.20720757      1000000 
   24000     0.859189   -4.9163518            0   -3.6276098   0.19308562      1000000 
   25000   0.89152048   -4.9597405            0   -3.6225027   0.18084194      1000000 
   26000   0.91818432   -4.9942918            0   -3.6170596   0.16993745      1000000 
   27000   0.94601811   -5.0305267            0   -3.6115452   0.15901438      1000000 
   28000   0.97418841   -5.0678065            0   -3.6065709   0.14809714      1000000 
   29000    1.0014468   -5.1041578            0   -3.6020359   0.13744751      1000000 
   30000    1.0263375   -5.1361141            0   -3.5966573   0.12749751      1000000 
   31000    1.0440221   -5.1581675            0   -3.5921847   0.11889908      1000000 
   32000    1.0587882   -5.1754391            0   -3.5873078   0.11079171      1000000 
   33000    1.0762556   -5.1974907            0   -3.5831591   0.10206045      1000000 
   34000    1.0977797   -5.2259146            0   -3.5792979  0.092566638      1000000 
   35000    1.1261578    -5.264937            0   -3.5757546  0.082067528      1000000 
   36000    1.1388444   -5.2794902            0   -3.5712785  0.074842753      1000000 
   37000    1.1429793   -5.2821701            0   -3.5677563  0.069436902      1000000 
   38000    1.1566441   -5.2991099            0   -3.5641995  0.062550215      1000000 
   39000    1.1753616   -5.3236166            0   -3.5606309  0.055075265      1000000 
   40000     1.180174   -5.3274378            0   -3.5572337  0.050299892      1000000 
   41000    1.1762075   -5.3186825            0   -3.5544279  0.046987176      1000000 
   42000    1.1726614   -5.3100897            0   -3.5511542  0.043544493      1000000 
   43000    1.1726663   -5.3070625            0   -3.5481197  0.039294166      1000000 
   44000    1.1753511   -5.3093704            0   -3.5464003  0.034377996      1000000 
   45000    1.1834705    -5.319076            0   -3.5439273  0.028737594      1000000 
   46000     1.185591   -5.3205652            0   -3.5422359  0.024569732      1000000 
   47000    1.1838045   -5.3153748            0   -3.5397253  0.021640072      1000000 
   48000    1.1770643     -5.30368            0   -3.5381404  0.019878207      1000000 
   49000    1.1719028   -5.2944494            0   -3.5366517  0.017767008      1000000 
   50000    1.1698243   -5.2889023            0   -3.5342223  0.014663903      1000000 
   51000    1.1744608   -5.2945873            0   -3.5329527 0.0099628176      1000000 
   52000    1.1613453   -5.2741074            0   -3.5321455 0.0085315855      1000000 
   53000    1.1445722   -5.2478493            0   -3.5310462 0.0079028348      1000000 
   54000    1.1357134   -5.2333903            0    -3.529875 0.0056407823      1000000 
   55000    1.1346133   -5.2306183            0   -3.5287532 0.0016404486      1000000 
   56000    1.1420249    -5.240146            0   -3.5271637 -0.0040882539      1000000 
   57000     1.141578   -5.2373793            0   -3.5250674 -0.0083205481      1000000 
   58000     1.138777   -5.2319763            0   -3.5238657 -0.011807783      1000000 
   59000    1.1264977   -5.2115767            0   -3.5218845 -0.013019691      1000000 
   60000     1.110118   -5.1854976            0   -3.5203742 -0.013075499      1000000 
   61000    1.1010873   -5.1702711            0   -3.5186933 -0.014263157      1000000 
   62000    1.0976575   -5.1637122            0    -3.517279  -0.01638207      1000000 
   63000    1.0860418   -5.1445765            0   -3.5155662 -0.016788491      1000000 
   64000    1.0753394   -5.1270335            0   -3.5140763 -0.017077966      1000000 
   65000    1.0631087   -5.1075447            0   -3.5129329 -0.016972181      1000000 
   66000    1.0537558    -5.092871            0   -3.5122882 -0.017635468      1000000 
   67000    1.0531847   -5.0910285            0   -3.5113022 -0.020265693      1000000 
   68000    1.0526717   -5.0894821            0   -3.5105254 -0.023144396      1000000 
   69000    1.0441639   -5.0757048            0   -3.5095093 -0.024597886      1000000 
   70000    1.0377127   -5.0650149            0   -3.5084959 -0.026372106      1000000 
   71000    1.0309961   -5.0533549            0   -3.5069105 -0.028011981      1000000 
   72000    1.0241092   -5.0423178            0   -3.5062033 -0.029611042      1000000 
   73000    1.0173057   -5.0308886            0   -3.5049791 -0.031156185      1000000 
   74000    1.0173323   -5.0291695            0   -3.5032201 -0.033803591      1000000 
   75000    1.0170097   -5.0274564            0   -3.5019908 -0.036196891      1000000 
   76000    1.0111752   -5.0176778            0   -3.5009638 -0.037218312      1000000 
   77000   0.99461645   -4.9915115            0   -3.4996348 -0.035901734      1000000 
   78000   0.97427768    -4.959809            0   -3.4984395 -0.033714172      1000000 
   79000   0.96063923   -4.9379537            0   -3.4970412 -0.032822283      1000000 
   80000    0.9532143   -4.9261471            0   -3.4963716 -0.033375349      1000000 
   81000   0.95104373   -4.9218007            0    -3.495281 -0.035115374      1000000 
   82000   0.95092661    -4.920786            0    -3.494442 -0.037430312      1000000 
   83000   0.94931982   -4.9170001            0   -3.4930661 -0.039525122      1000000 
   84000    0.9471448    -4.913511            0   -3.4928395 -0.041564766      1000000 
   85000   0.94382994   -4.9072991            0   -3.4915997 -0.043220885      1000000 
   86000   0.93856969   -4.8979218            0   -3.4901125 -0.044294829      1000000 
   87000    0.9316222    -4.886519            0   -3.4891306 -0.044835347      1000000 
   88000   0.92614861   -4.8775033            0    -3.488325  -0.04538911      1000000 
   89000   0.91626457   -4.8615831            0   -3.4872304 -0.044919025      1000000 
   90000   0.90290917   -4.8406786            0   -3.4863584  -0.04380611      1000000 
   91000   0.89655482   -4.8301582            0   -3.4853692 -0.044142784      1000000 
   92000   0.89601439   -4.8283373            0   -3.4843589 -0.045722247      1000000 
   93000   0.89224309   -4.8216144            0   -3.4832928 -0.046726114      1000000 
   94000   0.88371172   -4.8085824            0   -3.4830574  -0.04685211      1000000 
   95000   0.87813119   -4.7995195            0   -3.4823651 -0.047434526      1000000 
   96000   0.87625846   -4.7964026            0   -3.4820572 -0.048628292      1000000 
   97000   0.87272044   -4.7899158            0   -3.4808773 -0.049280736      1000000 
   98000   0.86702474   -4.7810683            0    -3.480573 -0.049314343      1000000 
   99000   0.85669284   -4.7648857            0   -3.4798877 -0.048268893      1000000 
  100000   0.84800836   -4.7513655            0   -3.4793939 -0.047475292      1000000 
  101000   0.84551737   -4.7472452            0     -3.47901 -0.047850221      1000000 
  102000   0.84551103   -4.7463809            0   -3.4781552 -0.048617186      1000000 
  103000   0.84133109    -4.739515            0   -3.4775589 -0.048490243      1000000 
  104000   0.83676957   -4.7320985            0   -3.4769845 -0.048080917      1000000 
  105000   0.83313621   -4.7257878            0   -3.4761237 -0.047600541      1000000 
  106000   0.82755371   -4.7160249            0   -3.4747343 -0.046499647      1000000 
  107000    0.8170489   -4.6996558            0   -3.4741219 -0.044412508      1000000 
  108000    0.8098312   -4.6879672            0   -3.4732594 -0.042992567      1000000 
  109000   0.81001032   -4.6882932            0   -3.4733168 -0.043194023      1000000 
  110000   0.80901342   -4.6860345            0   -3.4725534 -0.043317847      1000000 
  111000   0.80648044   -4.6811897            0   -3.4715079 -0.043250781      1000000 
  112000   0.80128387   -4.6721472            0     -3.47026 -0.042758305      1000000 
  113000   0.79352171    -4.660067            0   -3.4698227 -0.041942811      1000000 
  114000   0.78765451   -4.6508359            0   -3.4693921 -0.041625691      1000000 
  115000   0.78479298   -4.6458393            0   -3.4686877 -0.041979165      1000000 
  116000   0.78291849     -4.64255            0     -3.46821 -0.042538769      1000000 
  117000   0.77997472   -4.6374829            0   -3.4675584 -0.042795925      1000000 
  118000   0.77499957   -4.6293037            0   -3.4668417 -0.042605669      1000000 
  119000   0.77037009   -4.6218013            0   -3.4662834 -0.042485991      1000000 
  120000   0.76598671   -4.6148845            0   -3.4659413 -0.042441406      1000000 
  121000   0.76178796   -4.6082005            0   -3.4655553 -0.042389804      1000000 
  122000   0.75780372   -4.6014574            0   -3.4647884  -0.04228016      1000000 
  123000   0.75554958   -4.5971958            0   -3.4639079 -0.042426104      1000000 
  124000   0.75724432   -4.5990052            0   -3.4631753   -0.0432611      1000000 
  125000   0.76039775   -4.6036526            0   -3.4630927 -0.044257564      1000000 
  126000   0.76031293   -4.6031013            0   -3.4626686 -0.044330577      1000000 
  127000   0.75378368   -4.5923768            0   -3.4617376  -0.04286953      1000000 
  128000   0.74554471   -4.5794437            0   -3.4611626 -0.040963013      1000000 
  129000   0.73947661   -4.5702229            0   -3.4610436 -0.039547283      1000000 
  130000   0.73623219   -4.5648594            0   -3.4605466 -0.038769134      1000000 
  131000   0.73457473   -4.5626699            0   -3.4608433 -0.038412376      1000000 
  132000   0.73096342   -4.5569456            0   -3.4605357  -0.03773445      1000000 
  133000   0.73010946   -4.5552718            0   -3.4601428 -0.037681584      1000000 
  134000   0.73422663   -4.5601966            0    -3.458892 -0.038583233      1000000 
  135000   0.73754195   -4.5650073            0     -3.45873 -0.039292069      1000000 
  136000   0.73567278   -4.5607762            0   -3.4573025 -0.038614977      1000000 
  137000   0.73005787   -4.5520783            0   -3.4570267 -0.036859549      1000000 
  138000    0.7212063    -4.538868            0   -3.4570933 -0.034190698      1000000 
  139000   0.71762078   -4.5330405            0   -3.4566439 -0.032308985      1000000 
  140000   0.71868486   -4.5343786            0   -3.4563859 -0.031314763      1000000 
  141000   0.71928402      -4.5354            0   -3.4565087 -0.030377615      1000000 
  142000   0.72188495   -4.5393732            0   -3.4565806 -0.030011589      1000000 
  143000   0.72771111   -4.5478064            0   -3.4562749 -0.030483797      1000000 
  144000   0.73222358   -4.5546788            0   -3.4563787 -0.030955545      1000000 
  145000   0.73116589   -4.5525498            0   -3.4558362 -0.030478672      1000000 
  146000   0.72756067   -4.5472661            0   -3.4559602 -0.029676716      1000000 
  147000   0.72916638    -4.549773            0   -3.4560586 -0.029923574      1000000 
  148000   0.73265593    -4.554415            0   -3.4554664 -0.030479077      1000000 
  149000   0.73149658   -4.5529843            0   -3.4557747 -0.030118138      1000000 
  150000   0.72605324   -4.5443184            0   -3.4552736 -0.028807369      1000000 
  151000   0.71974533   -4.5342103            0    -3.454627 -0.027344867      1000000 
  152000   0.71596765    -4.528983            0   -3.4550661 -0.026509856      1000000 
  153000   0.71485623   -4.5272795            0   -3.4550296 -0.026220204      1000000 
  154000   0.71644533   -4.5288873            0   -3.4542539 -0.026331526      1000000 
  155000   0.71351429     -4.52466            0    -3.454423 -0.025531696      1000000 
  156000   0.70766528   -4.5156229            0   -3.4541591 -0.024069817      1000000 
  157000   0.70585276   -4.5127983            0   -3.4540532 -0.023380174      1000000 
  158000   0.70856129   -4.5165703            0   -3.4537626 -0.023626299      1000000 
  159000   0.71560229   -4.5271884            0   -3.4538194 -0.024790884      1000000 
  160000   0.72254365   -4.5370826            0    -3.453302 -0.025890465      1000000 
  161000   0.72341387   -4.5380341            0   -3.4529482 -0.025772049      1000000 
  162000   0.72126167   -4.5344585            0   -3.4526007 -0.025007033      1000000 
  163000    0.7226044   -4.5358401            0   -3.4519683 -0.024854617      1000000 
  164000   0.72561357   -4.5400669            0   -3.4516815 -0.025028535      1000000 
  165000   0.72646699   -4.5414517            0   -3.4517863 -0.024805561      1000000 
  166000   0.72664748   -4.5418849            0   -3.4519487 -0.024500514      1000000 
  167000   0.72751106   -4.5428883            0   -3.4516568 -0.024405667      1000000 
  168000   0.72892477   -4.5455542            0   -3.4522022 -0.024557981      1000000 
  169000    0.7306587    -4.548324            0   -3.4523712  -0.02471594      1000000 
  170000   0.72764266   -4.5434941            0   -3.4520652 -0.023795156      1000000 
  171000    0.7162214    -4.526653            0   -3.4523555 -0.021188601      1000000 
  172000   0.70448873   -4.5090831            0    -3.452384 -0.018588361      1000000 
  173000   0.70480837    -4.510309            0   -3.4531304 -0.018600323      1000000 
  174000   0.71454437   -4.5249602            0   -3.4531781 -0.020666655      1000000 
  175000   0.72211947   -4.5358333            0   -3.4526889 -0.022392074      1000000 
  176000   0.72187238   -4.5359954            0   -3.4532216 -0.022551168      1000000 
  177000   0.72161645   -4.5361909            0    -3.453801 -0.022385544      1000000 
  178000   0.72055348   -4.5344603            0   -3.4536648 -0.021784168      1000000 
  179000   0.71747109   -4.5295568            0   -3.4533848 -0.020691858      1000000 
  180000    0.7128041   -4.5226144            0   -3.4534427 -0.019325022      1000000 
  181000   0.70742382   -4.5146959            0   -3.4535943 -0.017875279      1000000 
  182000   0.70331873    -4.508198            0   -3.4532538 -0.016779685      1000000 
  183000    0.7036738   -4.5087704            0   -3.4532936 -0.016805581    1000000.1 
  184000   0.70887562   -4.5166821            0   -3.4534028 -0.018032124    1000000.1 
  185000   0.71802871   -4.5303823            0   -3.4533739 -0.020095082    1000000.1 
  186000   0.72405512   -4.5391722            0   -3.4531244 -0.021438902    1000000.1 
  187000   0.72716817   -4.5430181            0   -3.4523009 -0.021955088    1000000.1 
  188000    0.7301097   -4.5472082            0   -3.4520788 -0.022226571    1000000.1 
  189000   0.72961287   -4.5460341            0     -3.45165 -0.021643187    1000000.1 
  190000   0.72825755   -4.5435536            0   -3.4512024 -0.020658419    1000000.1 
  191000   0.72055368   -4.5317619            0   -3.4509661 -0.018284057    1000000.1 
  192000   0.70530767   -4.5087895            0    -3.450862 -0.014422687    1000000.1 
  193000   0.68838425   -4.4835133            0   -3.4509701 -0.010474334    1000000.1 
  194000   0.68418555   -4.4771938            0   -3.4509485 -0.0092982123    1000000.1 
  195000   0.69080729   -4.4863546            0    -3.450177 -0.010427802    1000000.1 
  196000   0.69490443   -4.4930617            0   -3.4507386 -0.011336154    1000000.1 
  197000   0.69991015   -4.5004837            0   -3.4506523 -0.012471408    1000000.1 
  198000   0.70715697    -4.511442            0   -3.4507406  -0.01420995    1000000.1 
  199000   0.71043272   -4.5163492            0   -3.4507344 -0.015395153    1000000.1 
  200000   0.71262003   -4.5199951            0   -3.4510995 -0.016533449    1000000.1 
  201000    0.7144788   -4.5226044            0   -3.4509206 -0.017610008    1000000.1 
  202000   0.71208081    -4.519115            0   -3.4510281 -0.017772392    1000000.1 
  203000    0.7047329    -4.508358            0   -3.4512926 -0.016885508    1000000.1 
  204000   0.70023797   -4.5011093            0   -3.4507861 -0.016544439    1000000.1 
  205000   0.70459781   -4.5076307            0    -3.450768 -0.018089631    1000000.1 
  206000   0.71558608   -4.5241498            0   -3.4508051 -0.020909103    1000000.1 
  207000   0.72001838   -4.5305037            0   -3.4505108 -0.022199175    1000000.1 
  208000   0.71740978    -4.526391            0   -3.4503109 -0.021637983    1000000.1 
  209000   0.71257733   -4.5199335            0   -3.4511018 -0.020211211    1000000.1 
  210000    0.7067364   -4.5109665            0   -3.4508959 -0.018244242    1000000.1 
  211000   0.70552414   -4.5089556            0   -3.4507034 -0.017063061    1000000.1 
  212000   0.70995037   -4.5157778            0   -3.4508864 -0.017008768    1000000.1 
  213000   0.71549117   -4.5237405            0   -3.4505383 -0.017197916    1000000.1 
  214000   0.71645045   -4.5254088            0   -3.4507677 -0.016588153    1000000.1 
  215000   0.71075967   -4.5168299            0   -3.4507247 -0.014716879    1000000.1 
  216000   0.70540868   -4.5085523            0   -3.4504733 -0.012957842    1000000.1 
  217000   0.70662729   -4.5107189            0    -3.450812 -0.012656915    1000000.1 
  218000   0.71307617   -4.5204515            0   -3.4508716  -0.01349096    1000000.1 
  219000   0.71416654   -4.5219458            0   -3.4507305 -0.013389378    1000000.1 
  220000   0.71779861   -4.5275695            0   -3.4509062 -0.013702071    1000000.1 
  221000   0.71535227   -4.5248124            0   -3.4518185 -0.012885164    1000000.1 
  222000   0.70776923   -4.5132963            0   -3.4516766 -0.011037957    1000000.1 
  223000   0.70677236   -4.5114705            0   -3.4513461 -0.010478212    1000000.1 
  224000   0.71440398   -4.5231024            0   -3.4515309 -0.011622194    1000000.1 
  225000   0.72023626   -4.5315522            0   -3.4512326 -0.012386283    1000000.1 
  226000   0.72340658   -4.5366808            0   -3.4516058 -0.012567342    1000000.1 
  227000   0.72639459   -4.5411625            0   -3.4516056 -0.012495603    1000000.1 
  228000   0.72658268   -4.5412112            0   -3.4513722 -0.011610285    1000000.1 
  229000   0.71556512   -4.5247495            0   -3.4514363 -0.0085155265    1000000.1 
  230000   0.70913927   -4.5154025            0   -3.4517278 -0.0062788695    1000000.1 
  231000   0.70347304   -4.5070859            0   -3.4519102 -0.0044777014    1000000.1 
  232000   0.70089482   -4.5033199            0   -3.4520114 -0.0036786182    1000000.1 
  233000    0.7026812   -4.5064684            0   -3.4524805 -0.0042693891    1000000.1 
  234000   0.71284902   -4.5218748            0   -3.4526356 -0.0069376596    1000000.1 
  235000   0.72983314    -4.547184            0   -3.4524695 -0.011135404    1000000.1 
  236000   0.73952802   -4.5620529            0   -3.4527966 -0.013891305    1000000.1 
  237000   0.73602443   -4.5569565            0   -3.4529554 -0.013811011    1000000.1 
  238000   0.72903844   -4.5469228            0   -3.4534003 -0.012766211    1000000.1 
  239000   0.72652855   -4.5429357            0   -3.4531779 -0.012393989    1000000.1 
  240000    0.7294346   -4.5468279            0   -3.4527112 -0.013015478    1000000.1 
  241000   0.73077269   -4.5490595            0   -3.4529357 -0.013455118    1000000.1 
  242000   0.73226287   -4.5506275            0   -3.4522685 -0.013877954    1000000.1 
  243000   0.73528868   -4.5553706            0    -3.452473 -0.014469594    1000000.1 
  244000   0.73164968   -4.5503086            0   -3.4528694 -0.013563306    1000000.1 
  245000   0.72423975   -4.5391434            0   -3.4528187 -0.011735585    1000000.1 
  246000   0.72071482   -4.5340869            0   -3.4530495 -0.010695878    1000000.1 
  247000   0.72482492   -4.5404614            0   -3.4532589 -0.011186023    1000000.1 
  248000     0.729385   -4.5475842            0   -3.4535419  -0.01177855    1000000.1 
  249000   0.72864983   -4.5465895            0   -3.4536498 -0.011244476    1000000.1 
  250000   0.71903862   -4.5323621            0   -3.4538389 -0.0089267991    1000000.1 
  251000   0.70572283   -4.5119915            0   -3.4534413 -0.005991665    1000000.1 
  252000   0.70581582   -4.5117515            0   -3.4530618 -0.0060104605    1000000.1 
  253000   0.71829144   -4.5306763            0   -3.4532738 -0.0090621745    1000000.1 
  254000   0.73640666   -4.5579938            0   -3.4534194 -0.013586894    1000000.1 
  255000   0.74883156   -4.5771922            0    -3.453981 -0.016982398    1000000.1 
  256000   0.75023382   -4.5794962            0   -3.4541816 -0.017753588    1000000.1 
  257000   0.74070252   -4.5650384            0   -3.4540204 -0.015836012    1000000.1 
  258000   0.72900293   -4.5473377            0   -3.4538685 -0.013129663    1000000.1 
  259000   0.72572469   -4.5423007            0   -3.4537487 -0.011887179    1000000.1 
  260000   0.72661954   -4.5437899            0   -3.4538956 -0.011495876    1000000.1 
  261000   0.72838603   -4.5461385            0   -3.4535946 -0.011245805    1000000.1 
  262000   0.72891812    -4.547223            0    -3.453881 -0.010737879    1000000.1 
  263000   0.72792703   -4.5451707            0   -3.4533152 -0.0098977693    1000000.1 
  264000   0.73355142   -4.5533926            0   -3.4531009 -0.010261713    1000000.1 
  265000   0.73588545   -4.5565076            0   -3.4527149 -0.0097525234    1000000.1 
  266000   0.72554768   -4.5411986            0   -3.4529121 -0.0066698255    1000000.1 
  267000   0.71801185    -4.530124            0   -3.4531408 -0.0041475326    1000000.1 
  268000   0.72498357   -4.5406881            0   -3.4532477 -0.0046406184    1000000.1 
  269000   0.73188555    -4.551766            0    -3.453973 -0.0055595234    1000000.1 
  270000   0.73513248   -4.5570765            0   -3.4544132 -0.0060641981    1000000.1 
  271000   0.74099387   -4.5660983            0   -3.4546432 -0.0072216289    1000000.1 
  272000    0.7452121   -4.5723144            0   -3.4545322 -0.0081208108    1000000.1 
  273000   0.74388652   -4.5703667            0   -3.4545727 -0.0078351098    1000000.1 
  274000   0.73659592   -4.5593643            0   -3.4545059 -0.0061881135    1000000.1 
  275000   0.73077471   -4.5509917            0   -3.4548649 -0.0047793075    1000000.1 
  276000   0.73527956   -4.5578538            0   -3.4549699 -0.0053800112    1000000.1 
  277000   0.74721557   -4.5757574            0   -3.4549701 -0.0074101535    1000000.1 
  278000   0.75692133   -4.5903113            0   -3.4549659 -0.0088180184    1000000.1 
  279000   0.75594937   -4.5888686            0    -3.454981 -0.0078317494    1000000.1 
  280000   0.74465932   -4.5723316            0   -3.4553785 -0.0046141849    1000000.1 
  281000   0.73444311   -4.5569631            0   -3.4553338 -0.0014875377    1000000.1 
  282000   0.73201784   -4.5536312            0   -3.4556398 3.5931033e-05    1000000.1 
  283000   0.72985155   -4.5500179            0   -3.4552758 0.0012806125    1000000.1 
  284000   0.73235939   -4.5538027            0   -3.4552989 0.0013847337    1000000.1 
  285000   0.73692344   -4.5605987            0   -3.4552491 0.00089246523    1000000.1 
  286000   0.73679766   -4.5602833            0   -3.4551224 0.0011348364    1000000.1 
  287000   0.73459381    -4.557095            0   -3.4552398 0.0016471998    1000000.1 
  288000   0.73579327   -4.5589354            0    -3.455281 0.0013225013    1000000.1 
  289000   0.73930187   -4.5644327            0   -3.4555156 0.0002942097    1000000.1 
  290000   0.73650942   -4.5603289            0   -3.4556003 0.00010293582    1000000.1 
  291000   0.73696671   -4.5612955            0   -3.4558809 -0.0010470468    1000000.1 
  292000   0.74376442   -4.5715082            0   -3.4558974 -0.0035706363    1000000.1 
  293000    0.7506519   -4.5820595            0   -3.4561179 -0.0060216108    1000000.1 
  294000   0.75177976    -4.583963            0   -3.4563296 -0.0070000729    1000000.1 
  295000   0.74557542   -4.5747832            0    -3.456456 -0.0061411301    1000000.1 
  296000   0.74047741   -4.5671863            0   -3.4565059 -0.0051144947    1000000.1 
  297000   0.74291367    -4.571594            0   -3.4572593 -0.0052822893    1000000.1 
  298000   0.74779227   -4.5790325            0   -3.4573801 -0.0056643461    1000000.1 
  299000   0.74552154   -4.5757602            0   -3.4575139 -0.0045507175    1000000.1 
  300000   0.73442617   -4.5592647            0   -3.4576608 -0.0017689269    1000000.1 
  301000   0.72413214   -4.5439344            0   -3.4577711 0.00063309313    1000000.1 
  302000   0.72391364   -4.5437233            0   -3.4578877 0.00066056246    1000000.1 
  303000   0.73686381   -4.5632247            0   -3.4579645 -0.0022271961    1000000.1 
  304000   0.75167332    -4.585948            0   -3.4584743  -0.00564056    1000000.1 
  305000   0.75931174   -4.5974715            0   -3.4585405 -0.0074448514    1000000.1 
  306000   0.75678289   -4.5940219            0   -3.4588841 -0.0069568747    1000000.1 
  307000   0.74776329   -4.5809154            0   -3.4593066 -0.0049575403    1000000.1 
  308000   0.73916477    -4.568576            0   -3.4598645 -0.0030308515    1000000.1 
  309000    0.7386242   -4.5679827            0    -3.460082 -0.0027665123    1000000.1 
  310000   0.74415146   -4.5762601            0   -3.4600688 -0.0037487809    1000000.1 
  311000   0.74579672     -4.57887            0   -3.4602109 -0.0039720535    1000000.1 
  312000   0.74442949   -4.5767509            0   -3.4601425 -0.0034825709    1000000.1 
  313000   0.74676228   -4.5803642            0   -3.4602568 -0.003531634    1000000.1 
  314000   0.75113339   -4.5866665            0   -3.4600027 -0.0037193315    1000000.1 
  315000    0.7521234    -4.587966            0   -3.4598172 -0.0030274874    1000000.1 
  316000   0.74999768   -4.5848447            0   -3.4598844 -0.0015644594    1000000.1 
  317000   0.74509387   -4.5776588            0   -3.4600539   0.00042642    1000000.1 
  318000   0.74194098   -4.5729019            0   -3.4600262 0.0019844627    1000000.1 
  319000   0.73979673   -4.5698628            0   -3.4602034  0.003186934    1000000.1 
  320000   0.73945177   -4.5694338            0   -3.4602918 0.0039470414    1000000.1 
  321000   0.74206778    -4.573508            0   -3.4604421  0.004065626    1000000.1 
  322000   0.74582144   -4.5791462            0     -3.46045 0.0038744319    1000000.1 
  323000   0.75089031   -4.5868752            0   -3.4605759 0.0032633617    1000000.1 
  324000   0.75756303   -4.5967489            0   -3.4604409 0.0021390447    1000000.1 
  325000   0.76510441   -4.6081435            0   -3.4605238 0.00066251306    1000000.1 
  326000   0.77167887   -4.6183538            0   -3.4608727 -0.00066815257    1000000.1 
  327000   0.77694807   -4.6265296            0    -3.461145 -0.0015380985    1000000.1 
  328000    0.7743277   -4.6225875            0   -3.4611332 -0.00058579004    1000000.1 
  329000   0.76522925   -4.6091886            0   -3.4613816 0.0018113442    1000000.1 
  330000   0.75848283   -4.5992198            0   -3.4615321 0.0038009353    1000000.1 
  331000   0.75497677   -4.5939187            0   -3.4614899  0.004981091    1000000.1 
  332000   0.75401491     -4.59258            0    -3.461594 0.0053321226    1000000.1 
  333000   0.75519901   -4.5946287            0   -3.4618666 0.0049199904    1000000.1 
  334000   0.75776793   -4.5985045            0   -3.4618892 0.0040403745    1000000.1 
  335000   0.75975869   -4.6015651            0   -3.4619637 0.0032378174    1000000.1 
  336000   0.75892126    -4.600442            0   -3.4620967 0.0030797124    1000000.1 
  337000   0.75435095   -4.5937516            0   -3.4622616 0.0037425688    1000000.1 
  338000   0.74990384   -4.5869792            0   -3.4621596 0.0044008202    1000000.1 
  339000   0.75313339   -4.5916861            0   -3.4620223  0.003536857    1000000.1 
  340000    0.7586879   -4.5998762            0   -3.4618809 0.0021629431    1000000.1 
  341000   0.75994238   -4.6016389            0    -3.461762 0.0016374555    1000000.1 
  342000   0.75732427   -4.5976499            0      -3.4617 0.0019336215    1000000.1 
  343000   0.75332945   -4.5915782            0   -3.4616204 0.0025155538    1000000.1 
  344000   0.75007994   -4.5867154            0   -3.4616317 0.0028542705    1000000.1 
  345000   0.74979096   -4.5860773            0    -3.461427 0.0024728995    1000000.1 
  346000   0.75302838   -4.5907369            0   -3.4612306 0.0012952852    1000000.1 
  347000   0.75576234   -4.5948202            0   -3.4612131 0.00017246948    1000000.1 
  348000   0.75552264   -4.5943674            0   -3.4611199 -0.00034087777    1000000.1 
  349000   0.75372478    -4.591478            0   -3.4609272 -0.00052411662    1000000.1 
  350000   0.75338797   -4.5908714            0   -3.4608258 -0.0010012041    1000000.1 
  351000   0.75367797   -4.5912136            0    -3.460733 -0.001638671    1000000.1 
  352000   0.75374595   -4.5912349            0   -3.4606523 -0.0022550229    1000000.1 
  353000   0.75371417   -4.5910692            0   -3.4605343 -0.0028242477    1000000.1 
  354000   0.75338445   -4.5904141            0   -3.4603737 -0.0032642291    1000000.1 
  355000   0.75261449   -4.5891207            0   -3.4602352 -0.0035267303    1000000.1 
  356000   0.75169041   -4.5878502            0   -3.4603509 -0.0036655295    1000000.1 
  357000   0.74955324   -4.5844781            0   -3.4601844 -0.0034654833    1000000.1 
  358000   0.74552637    -4.578339            0   -3.4600854 -0.0028997934    1000000.1 
  359000   0.74295542   -4.5742778            0   -3.4598805 -0.0026752776    1000000.1 
  360000   0.74347753   -4.5750166            0   -3.4598362 -0.0031258462    1000000.1 
  361000   0.74319898   -4.5745223            0   -3.4597596 -0.0034583813    1000000.1 
  362000   0.74205338   -4.5726376            0   -3.4595933 -0.0035926823    1000000.1 
  363000     0.741229   -4.5712841            0   -3.4594763 -0.0037460699    1000000.1 
  364000   0.74009789   -4.5696485            0   -3.4595373 -0.0038258046    1000000.1 
  365000   0.73969951   -4.5690384            0   -3.4595248 -0.0040304799    1000000.1 
  366000   0.74077089   -4.5705641            0   -3.4594435 -0.0045146768    1000000.1 
  367000   0.74292083   -4.5735459            0   -3.4592004 -0.0051484342    1000000.1 
  368000   0.74214414   -4.5721907            0   -3.4590103 -0.0051568824    1000000.1 
  369000   0.73825816   -4.5662664            0   -3.4589147 -0.0045399553    1000000.1 
  370000   0.73535429   -4.5618998            0   -3.4589038 -0.0041461521    1000000.1 
  371000   0.73521624   -4.5616959            0    -3.458907 -0.0043543804    1000000.1 
  372000   0.73627272   -4.5631534            0   -3.4587798 -0.0048341839    1000000.1 
  373000   0.73673687   -4.5637295            0   -3.4586597 -0.0051980064    1000000.1 
  374000   0.73638686   -4.5632115            0   -3.4586667 -0.0053723103    1000000.1 
  375000   0.73572505   -4.5621461            0    -3.458594 -0.0054331321    1000000.1 
  376000   0.73471898   -4.5605602            0   -3.4585171 -0.0053836796    1000000.1 
  377000   0.73281467   -4.5578298            0   -3.4586431 -0.0051600393    1000000.1 
  378000   0.73097887    -4.555067            0    -3.458634 -0.0049756998    1000000.1 
  379000   0.73099336   -4.5549799            0   -3.4585251 -0.0051997579    1000000.1 
  380000   0.73254226   -4.5571938            0   -3.4584157 -0.0057632966    1000000.1 
  381000   0.73500084   -4.5609907            0   -3.4585249 -0.0064908646    1000000.1 
  382000   0.73580866   -4.5621508            0   -3.4584733 -0.0068131675    1000000.1 
  383000   0.73480018   -4.5605864            0   -3.4584216 -0.0066551466    1000000.1 
  384000   0.73211701   -4.5565572            0    -3.458417 -0.0060528634    1000000.1 
  385000   0.72846894   -4.5510236            0   -3.4583553 -0.0052008863    1000000.1 
  386000   0.72653838   -4.5480317            0   -3.4582592 -0.0046965327    1000000.1 
  387000   0.72726992   -4.5490537            0   -3.4581839 -0.0047913435    1000000.1 
  388000    0.7302264   -4.5534804            0    -3.458176 -0.0053807568    1000000.1 
  389000   0.73226416   -4.5565363            0   -3.4581754 -0.0058074755    1000000.1 
  390000   0.73160527   -4.5554566            0    -3.458084 -0.0056920276    1000000.1 
  391000   0.72951791    -4.552287            0   -3.4580453 -0.0052780738    1000000.1 
  392000   0.72755095   -4.5492443            0   -3.4579529 -0.0048641976    1000000.1 
  393000    0.7263418   -4.5473995            0   -3.4579219 -0.0045854618    1000000.1 
  394000    0.7248741   -4.5452147            0   -3.4579385 -0.004270324    1000000.1 
  395000   0.72331072   -4.5428087            0   -3.4578775  -0.00398708    1000000.1 
  396000   0.72314038   -4.5425156            0   -3.4578399 -0.0040699098    1000000.1 
  397000   0.72474372    -4.544922            0   -3.4578413 -0.0046033812    1000000.1 
  398000   0.72663583   -4.5477659            0   -3.4578472 -0.0052746021    1000000.1 
  399000   0.72768982   -4.5492069            0   -3.4577072 -0.0058061277    1000000.1 
  400000   0.72797621   -4.5497078            0   -3.4577786 -0.0061846025    1000000.1 
  401000   0.72861107   -4.5506946            0   -3.4578131 -0.0065736681    1000000.1 
  402000    0.7301539   -4.5528697            0   -3.4576741 -0.0070478169    1000000.1 
  403000   0.73142084   -4.5547849            0   -3.4576889 -0.0073799691    1000000.1 
  404000   0.73140646   -4.5547975            0   -3.4577231 -0.0073578779    1000000.1 
  405000   0.73033731   -4.5531456            0   -3.4576749 -0.0070295935    1000000.1 
  406000   0.72865071   -4.5506755            0   -3.4577346 -0.0065247194    1000000.1 
  407000   0.72739026   -4.5488213            0    -3.457771 -0.0060666164    1000000.1 
  408000   0.72666937     -4.54764            0    -3.457671 -0.0056978431    1000000.1 
  409000   0.72517261   -4.5454071            0   -3.4576832 -0.0052053523    1000000.1 
  410000   0.72250079    -4.541346            0   -3.4576296 -0.0045278843    1000000.1 
  411000   0.72077953   -4.5386354            0   -3.4575008 -0.0040829107    1000000.1 
  412000   0.72015822   -4.5376292            0   -3.4574266 -0.0039380062    1000000.1 
  413000   0.72110456   -4.5389727            0   -3.4573506 -0.0041802158    1000000.1 
  414000    0.7250542   -4.5449218            0   -3.4573755 -0.0050215595    1000000.1 
  415000   0.72852243   -4.5501027            0   -3.4573542 -0.0057195864    1000000.1 
  416000   0.72899573   -4.5508176            0   -3.4573592 -0.0057529089    1000000.1 
  417000   0.72791388   -4.5493286            0   -3.4574929 -0.005416829    1000000.1 
  418000   0.72686629   -4.5477466            0   -3.4574823 -0.005055346    1000000.1 
  419000   0.72596542   -4.5462766            0   -3.4573635 -0.004752559    1000000.1 
  420000   0.72602064   -4.5464095            0   -3.4574135 -0.0047046122    1000000.1 
  421000   0.72684981   -4.5476928            0   -3.4574531 -0.004863968    1000000.1 
  422000   0.72850632   -4.5501217            0   -3.4573974 -0.005191211    1000000.1 
  423000    0.7299236   -4.5522246            0   -3.4573744 -0.005435625    1000000.1 
  424000   0.72887258   -4.5506158            0    -3.457342 -0.0051396773    1000000.1 
  425000   0.72626205   -4.5467092            0   -3.4573512 -0.0044892263    1000000.1 
  426000   0.72481836   -4.5444903            0   -3.4572977 -0.0040474726    1000000.1 
  427000   0.72449182   -4.5440351            0   -3.4573324 -0.0038793504    1000000.1 
  428000   0.72520592   -4.5450802            0   -3.4573063 -0.003967951    1000000.1 
  429000   0.72611154   -4.5464508            0   -3.4573185 -0.0041375628    1000000.1 
  430000    0.7266784   -4.5472169            0   -3.4572343 -0.0042410041    1000000.1 
  431000   0.72636897   -4.5467875            0   -3.4572691 -0.004176281    1000000.1 
  432000   0.72614905    -4.546423            0   -3.4572345 -0.0041166422    1000000.1 
  433000   0.72659295   -4.5471234            0    -3.457269 -0.004184032    1000000.1 
  434000   0.72624399   -4.5465975            0   -3.4572665 -0.0041105226    1000000.1 
  435000   0.72552577   -4.5454949            0   -3.4572412 -0.0039967978    1000000.1 
  436000   0.72647617    -4.546809            0   -3.4571298 -0.0042336021    1000000.1 
  437000   0.72778145   -4.5487185            0   -3.4570814 -0.0045733954    1000000.1 
  438000   0.72814867   -4.5491712            0   -3.4569833 -0.0047209224    1000000.1 
  439000   0.72750555   -4.5482421            0   -3.4570188 -0.004648527    1000000.1 
  440000   0.72682501   -4.5472306            0   -3.4570282 -0.0045189432    1000000.1 
  441000   0.72590506   -4.5457393            0   -3.4569167 -0.0042941465    1000000.1 
  442000   0.72567428   -4.5453393            0   -3.4568629 -0.0041680248    1000000.1 
  443000   0.72632275   -4.5462498            0   -3.4568007 -0.0041951598    1000000.1 
  444000   0.72682571   -4.5469767            0   -3.4567732 -0.0041999959    1000000.1 
  445000    0.7267017   -4.5468414            0   -3.4568239 -0.0041053619    1000000.1 
  446000   0.72577806   -4.5453932            0   -3.4567612 -0.0038901194    1000000.1 
  447000   0.72482262   -4.5439829            0   -3.4567839 -0.0037203355    1000000.1 
  448000   0.72414599   -4.5429901            0    -3.456806 -0.0036503063    1000000.1 
  449000   0.72452497   -4.5434731            0   -3.4567206 -0.003779364    1000000.1 
  450000   0.72456752   -4.5435293            0    -3.456713 -0.0038076909    1000000.1 
  451000   0.72279973   -4.5408133            0   -3.4566486 -0.0034461479    1000000.1 
  452000   0.72142244   -4.5388107            0   -3.4567118 -0.0031659726    1000000.1 
  453000   0.72266163   -4.5407216            0    -3.456764 -0.0034158517    1000000.1 
  454000   0.72463509   -4.5436377            0     -3.45672 -0.0038178178    1000000.1 
  455000   0.72433943   -4.5432081            0   -3.4567339 -0.0037637219    1000000.1 
  456000   0.72196088   -4.5396382            0   -3.4567317 -0.0032841893    1000000.1 
  457000    0.7216211   -4.5390824            0   -3.4566856 -0.0031784259    1000000.1 
  458000   0.72232858   -4.5401241            0    -3.456666 -0.0032942707    1000000.1 
  459000   0.72222057   -4.5399054            0   -3.4566093 -0.0032843725    1000000.1 
  460000   0.72281262   -4.5407664            0   -3.4565823 -0.003440387    1000000.1 
  461000    0.7253629   -4.5445564            0    -3.456547 -0.0039775634    1000000.1 
  462000   0.72711681   -4.5470683            0   -3.4564281 -0.0043347315    1000000.1 
  463000   0.72629728   -4.5458549            0    -3.456444 -0.0041575327    1000000.1 
  464000   0.72424916   -4.5428077            0   -3.4564689 -0.0037039287    1000000.1 
  465000   0.72283681   -4.5406202            0   -3.4563999 -0.0033553211    1000000.1 
  466000   0.72177015   -4.5390382            0   -3.4564178 -0.0031181781    1000000.1 
  467000   0.72189826   -4.5392053            0   -3.4563927 -0.0031617805    1000000.1 
  468000   0.72261485   -4.5402033            0   -3.4563159 -0.0033635635    1000000.1 
  469000   0.72244911   -4.5398842            0   -3.4562454 -0.0034299698    1000000.1 
  470000   0.72306945   -4.5408406            0   -3.4562713 -0.0036362274    1000000.1 
  471000   0.72426051   -4.5425614            0   -3.4562055 -0.0038901667    1000000.1 
  472000   0.72387954   -4.5418966            0   -3.4561122 -0.0037842097    1000000.1 
  473000   0.72226487   -4.5393969            0   -3.4560344 -0.0034216004    1000000.1 
  474000   0.72148523   -4.5381484            0   -3.4559554 -0.0032345582    1000000.1 
  475000   0.72216226   -4.5391499            0   -3.4559414 -0.0033470475    1000000.1 
  476000   0.72243515   -4.5396268            0   -3.4560089 -0.0033789642    1000000.1 
  477000   0.72063828   -4.5368563            0   -3.4559337 -0.0029985179    1000000.1 
  478000   0.71927638   -4.5348178            0   -3.4559379 -0.0027169608    1000000.1 
  479000   0.71952054   -4.5351368            0   -3.4558907 -0.002790035    1000000.1 
  480000   0.72040852   -4.5364306            0   -3.4558525 -0.0030545475    1000000.1 
  481000   0.72069416   -4.5368309            0   -3.4558244 -0.0032677086    1000000.1 
  482000   0.72088473   -4.5371907            0   -3.4558984 -0.0035113079    1000000.1 
  483000   0.72149182   -4.5379995            0   -3.4557966 -0.0038434678    1000000.1 
  484000    0.7217871   -4.5382805            0   -3.4556346 -0.0041038948    1000000.1 
  485000   0.72139379    -4.537636            0   -3.4555801 -0.0042055965    1000000.1 
  486000   0.72086513   -4.5367702            0   -3.4555073 -0.0042439652    1000000.1 
  487000   0.72066337   -4.5362939            0   -3.4553336 -0.0043246896    1000000.1 
  488000   0.72059561   -4.5361073            0   -3.4552487 -0.0044462935    1000000.1 
  489000   0.71972057   -4.5347979            0   -3.4552518 -0.0044589629    1000000.1 
  490000   0.71905311   -4.5337163            0   -3.4551714 -0.0045585614    1000000.1 
  491000   0.71962321   -4.5345387            0   -3.4551386 -0.0049417108    1000000.1 
  492000   0.72051403   -4.5357386            0   -3.4550023 -0.0053919413    1000000.1 
  493000   0.72034095    -4.535443            0   -3.4549663 -0.0056179253    1000000.1 
  494000   0.71910175   -4.5334849            0   -3.4548669 -0.0055866135    1000000.1 
  495000   0.71729117   -4.5307324            0   -3.4548302 -0.0054273723    1000000.1 
  496000   0.71712208   -4.5304231            0   -3.4547746 -0.0055604358    1000000.1 
  497000   0.71703935   -4.5301686            0   -3.4546441 -0.0056849332    1000000.1 
  498000   0.71631854   -4.5290823            0   -3.4546391 -0.0056466389    1000000.1 
  499000   0.71473925   -4.5266162            0   -3.4545417 -0.005395636    1000000.1 
  500000   0.71221859   -4.5228574            0   -3.4545639 -0.0049874145    1000000.1 
  501000   0.71093954   -4.5208449            0   -3.4544698 -0.0048728008    1000000.1 
  502000    0.7116488   -4.5217848            0   -3.4543459 -0.0052080227    1000000.1 
  503000   0.71316543    -4.524045            0   -3.4543313 -0.0057383128    1000000.1 
  504000    0.7144548   -4.5259016            0   -3.4542539 -0.0061984758    1000000.1 
  505000   0.71471089   -4.5261559            0    -3.454124 -0.0064032097    1000000.1 
  506000   0.71409794   -4.5251769            0   -3.4540644 -0.0063838507    1000000.1 
  507000   0.71339726   -4.5240531            0   -3.4539917 -0.0062875574    1000000.1 
  508000   0.71261159   -4.5228895            0   -3.4540065 -0.0061208524    1000000.1 
  509000   0.71116779   -4.5207234            0    -3.454006 -0.0057665878    1000000.1 
  510000   0.70933552   -4.5179462            0   -3.4539771 -0.0052889371    1000000.1 
  511000    0.7077294   -4.5155237            0   -3.4539638 -0.0048435157    1000000.1 
  512000   0.70660898   -4.5138293            0   -3.4539499 -0.0045175718    1000000.1 
  513000   0.70616527   -4.5131576            0   -3.4539438 -0.0043798474    1000000.1 
  514000   0.70761104   -4.5152451            0   -3.4538626 -0.0046580212    1000000.1 
  515000   0.70986364   -4.5186914            0   -3.4539302 -0.005141967    1000000.1 
  516000   0.71097532   -4.5202723            0   -3.4538436 -0.0054011947    1000000.1 
  517000    0.7107498   -4.5198663            0   -3.4537759 -0.0053757529    1000000.1 
  518000   0.71028507   -4.5191128            0   -3.4537194 -0.005284172    1000000.1 
  519000   0.71073794   -4.5197661            0   -3.4536935 -0.0053703491    1000000.1 
  520000   0.71132815   -4.5206602            0   -3.4537022 -0.0054961454    1000000.1 
  521000   0.71204573   -4.5217201            0   -3.4536858 -0.0056280024    1000000.1 
  522000   0.71181958   -4.5214332            0   -3.4537382 -0.0055592504    1000000.1 
  523000   0.71086974   -4.5198855            0   -3.4536152 -0.0053295777    1000000.1 
  524000   0.71057513   -4.5193656            0   -3.4535371 -0.005236507    1000000.1 
  525000   0.71100359   -4.5199926            0   -3.4535215 -0.0053021412    1000000.1 
  526000   0.71243194   -4.5220879            0   -3.4534743 -0.005543447    1000000.1 
  527000   0.71314815   -4.5232248            0    -3.453537 -0.005628221    1000000.1 
  528000   0.71234377   -4.5220829            0   -3.4536016 -0.0053891668    1000000.1 
  529000   0.71143272   -4.5205548            0     -3.45344 -0.0050884316    1000000.1 
  530000   0.71171346   -4.5209443            0   -3.4534085 -0.0049953347    1000000.1 
  531000   0.71118393   -4.5200925            0   -3.4533509 -0.0047186987    1000000.1 
  532000   0.70896299   -4.5168116            0   -3.4534013 -0.0040998628    1000000.1 
  533000   0.70680786    -4.513521            0   -3.4533433 -0.0034944115    1000000.1 
  534000   0.70650411   -4.5129911            0    -3.453269 -0.0032972317    1000000.1 
  535000   0.70703145   -4.5137193            0   -3.4532062 -0.0033595243    1000000.1 
  536000   0.70867698   -4.5162127            0   -3.4532314 -0.0037230746    1000000.1 
  537000   0.71103149   -4.5197247            0   -3.4532117 -0.0042375937    1000000.1 
  538000   0.71189955   -4.5210156            0   -3.4532006 -0.0044214902    1000000.1 
  539000   0.71029111   -4.5185835            0    -3.453181 -0.0040651214    1000000.1 
  540000   0.70797368   -4.5150292            0   -3.4531028  -0.00353407    1000000.1 
  541000   0.70712291   -4.5137758            0   -3.4531256 -0.003301345    1000000.1 
  542000   0.70702633   -4.5135526            0   -3.4530472 -0.0032539892    1000000.1 
  543000   0.70738301   -4.5139725            0   -3.4529321 -0.0033209535    1000000.1 
  544000    0.7080087   -4.5149344            0   -3.4529555 -0.0034567428    1000000.1 
  545000   0.70872848    -4.516013            0   -3.4529544 -0.0036035526    1000000.1 
  546000   0.70876082   -4.5160243            0   -3.4529172 -0.003622093    1000000.1 
  547000   0.70856264   -4.5156163            0   -3.4528065 -0.0036174374    1000000.1 
  548000     0.709093   -4.5164107            0   -3.4528054 -0.0038021799    1000000.1 
  549000   0.71023168   -4.5180562            0   -3.4527429 -0.0041493248    1000000.1 
  550000   0.71183066   -4.5203917            0     -3.45268 -0.0046006892    1000000.1 
  551000   0.71224986   -4.5209876            0   -3.4526472 -0.0048225244    1000000.1 
  552000    0.7116531   -4.5200779            0   -3.4526326 -0.0048255442    1000000.1 
  553000   0.71006645   -4.5177485            0    -3.452683 -0.0046175265    1000000.1 
  554000   0.70800847   -4.5145576            0   -3.4525791 -0.0042859777    1000000.1 
  555000   0.70691342   -4.5129752            0   -3.4526392 -0.0041309585    1000000.1 
  556000   0.70716534   -4.5133246            0   -3.4526107 -0.0042216797    1000000.1 
  557000   0.70737997   -4.5135133            0   -3.4524775 -0.004301533    1000000.1 
  558000   0.70715925   -4.5130961            0   -3.4523914 -0.0043078109    1000000.1 
  559000   0.70803475   -4.5143762            0   -3.4523582 -0.0045263766    1000000.1 
  560000    0.7090455   -4.5157591            0   -3.4522251 -0.0047472628    1000000.1 
  561000   0.70827255    -4.514527            0   -3.4521523 -0.0045923571    1000000.1 
  562000   0.70582867   -4.5108502            0   -3.4521412 -0.004111852    1000000.1 
  563000   0.70492111   -4.5094386            0   -3.4520909 -0.0039583061    1000000.1 
  564000   0.70636937   -4.5114553            0   -3.4519353 -0.0042933459    1000000.1 
  565000   0.70663922    -4.511741            0   -3.4518163 -0.0044278018    1000000.1 
  566000   0.70540572   -4.5098746            0      -3.4518 -0.0042725606    1000000.1 
  567000    0.7039093   -4.5075685            0   -3.4517385 -0.0040731123    1000000.1 
  568000   0.70327227   -4.5064695            0   -3.4515951 -0.0040597869    1000000.1 
  569000   0.70283694   -4.5056711            0   -3.4514495 -0.0041254809    1000000.1 
  570000   0.70346269   -4.5065788            0   -3.4514187 -0.0044291324    1000000.1 
  571000   0.70567053    -4.509886            0   -3.4514142 -0.0050524727    1000000.1 
  572000   0.70801064   -4.5133114            0   -3.4513296 -0.0057024717    1000000.1 
  573000   0.70939734   -4.5153006            0   -3.4512388 -0.0061438342    1000000.1 
  574000   0.70832318   -4.5136291            0   -3.4511785 -0.0060785652    1000000.1 
  575000    0.7066962   -4.5111439            0   -3.4511337 -0.0058584989    1000000.1 
  576000   0.70578967   -4.5096459            0   -3.4509955 -0.0057434931    1000000.1 
  577000    0.7052319   -4.5087079            0   -3.4508941 -0.0056965028    1000000.1 
  578000   0.70420492   -4.5071553            0   -3.4508818 -0.0055746769    1000000.1 
  579000   0.70344997   -4.5060242            0   -3.4508831 -0.0054963449    1000000.1 
  580000   0.70353202   -4.5060222            0   -3.4507581 -0.0055345203    1000000.1 
  581000   0.70282264   -4.5049177            0   -3.4507176 -0.0053909079    1000000.1 
  582000     0.701379   -4.5026708            0   -3.4506361 -0.0050848729    1000000.1 
  583000    0.7010369   -4.5020828            0   -3.4505612 -0.0049916943    1000000.1 
  584000   0.70111282   -4.5021272            0   -3.4504918 -0.0050086048    1000000.1 
  585000   0.70065461   -4.5012607            0   -3.4503126 -0.0049663693    1000000.1 
  586000   0.70041256   -4.5009135            0   -3.4503285 -0.0050320346    1000000.1 
  587000   0.69982579   -4.4999198            0   -3.4502149 -0.005079429    1000000.1 
  588000   0.69841806   -4.4977282            0   -3.4501348 -0.0050258751    1000000.1 
  589000   0.69831646   -4.4975712            0   -3.4501302 -0.0052504376    1000000.1 
  590000   0.69968819   -4.4995221            0   -3.4500235 -0.0057247069    1000000.1 
  591000   0.69929683   -4.4988933            0   -3.4499817 -0.0058160732    1000000.1 
  592000   0.69692469   -4.4952003            0   -3.4498469 -0.0054852213    1000000.1 
  593000   0.69588572   -4.4935917            0   -3.4497967 -0.0054096735    1000000.1 
  594000    0.6968585    -4.494974            0   -3.4497199 -0.0057338432    1000000.1 
  595000   0.69739429    -4.495733            0   -3.4496752 -0.0059852409    1000000.1 
  596000   0.69723041   -4.4953721            0   -3.4495601 -0.0060723634    1000000.1 
  597000   0.69744251   -4.4955625            0   -3.4494324 -0.0061851044    1000000.1 
  598000   0.69754206   -4.4956949            0   -3.4494154 -0.0062415596    1000000.1 
  599000   0.69757955   -4.4956601            0   -3.4493244  -0.00622566    1000000.1 
  600000   0.69723191   -4.4952082            0    -3.449394 -0.0060907969    1000000.1 
  601000   0.69670872   -4.4944589            0   -3.4494294 -0.0058886678    1000000.1 
  602000   0.69679664    -4.494612            0   -3.4494506 -0.0058006857    1000000.1 
  603000   0.69755406   -4.4957211            0   -3.4494237 -0.0058324139    1000000.1 
  604000   0.69750952   -4.4956227            0   -3.4493921 -0.0056903403    1000000.1 
  605000   0.69631359   -4.4937615            0   -3.4493247 -0.0053069947    1000000.1 
  606000   0.69575125   -4.4927943            0    -3.449201 -0.0050269292    1000000.1 
  607000   0.69543403   -4.4923066            0   -3.4491891 -0.0048102121    1000000.1 
  608000   0.69581782   -4.4928276            0   -3.4491345 -0.0047360739    1000000.1 
  609000   0.69726699   -4.4949463            0   -3.4490794 -0.0048631784    1000000.1 
  610000   0.69745877   -4.4951134            0   -3.4489589 -0.0047562797    1000000.1 
  611000   0.69695506   -4.4942603            0   -3.4488613 -0.0045483274    1000000.1 
  612000   0.69707564   -4.4944614            0   -3.4488816 -0.0045395487    1000000.1 
  613000   0.69765742   -4.4953365            0    -3.448884 -0.0047173921    1000000.1 
  614000   0.69899202    -4.497177            0   -3.4487227 -0.0051030129    1000000.1 
  615000   0.70096372   -4.5001931            0   -3.4487813 -0.0056324558    1000000.1 
  616000   0.70118734   -4.5004682            0    -3.448721 -0.0057818301    1000000.1 
  617000   0.69952453   -4.4978791            0    -3.448626 -0.0055103972    1000000.1 
  618000   0.69731219   -4.4945373            0   -3.4486027 -0.0051131357    1000000.1 
  619000   0.69597028   -4.4924525            0   -3.4485306 -0.0048883742    1000000.1 
  620000   0.69517651   -4.4911741            0   -3.4484428 -0.0047997378    1000000.1 
  621000   0.69486716   -4.4906249            0   -3.4483577 -0.0048294953    1000000.1 
  622000   0.69459354   -4.4901478            0    -3.448291 -0.0048823685    1000000.1 
  623000   0.69406741   -4.4892715            0   -3.4482038 -0.0049049725    1000000.1 
  624000   0.69446179   -4.4897465            0   -3.4480873 -0.005113667    1000000.1 
  625000   0.69458275    -4.489895            0   -3.4480543 -0.0052950276    1000000.1 
  626000   0.69412685   -4.4891802            0   -3.4480234 -0.0053838843    1000000.1 
  627000   0.69367851   -4.4884611            0   -3.4479767 -0.0054918944    1000000.1 
  628000   0.69299729   -4.4874061            0   -3.4479436 -0.0055824247    1000000.1 
  629000   0.69361854   -4.4882638            0   -3.4478694 -0.0059040251    1000000.1 
  630000   0.69435721   -4.4892669            0   -3.4477646 -0.0061893317    1000000.1 
  631000   0.69311024   -4.4872727            0   -3.4476408 -0.0060226985    1000000.1 
  632000   0.69128076   -4.4845267            0   -3.4476389 -0.0057015669    1000000.1 
  633000   0.69054218   -4.4833692            0   -3.4475892 -0.0055908522    1000000.1 
  634000   0.69138932   -4.4845659            0   -3.4475153 -0.005808309    1000000.1 
  635000    0.6927923   -4.4866009            0   -3.4474458 -0.0061370344    1000000.1 
  636000   0.69359858   -4.4877415            0   -3.4473771 -0.0063291433    1000000.1 
  637000   0.69357082    -4.487745            0   -3.4474222 -0.0063447192    1000000.1 
  638000   0.69300304   -4.4868504            0   -3.4473792 -0.006240122    1000000.1 
  639000   0.69220568   -4.4856082            0    -3.447333 -0.0061009095    1000000.1 
  640000   0.69197246   -4.4852708            0   -3.4473455 -0.0060921446    1000000.1 
  641000    0.6924017     -4.48584            0   -3.4472709 -0.0062166165    1000000.1 
  642000   0.69284225   -4.4865857            0   -3.4473558 -0.0063477204    1000000.1 
  643000   0.69306849   -4.4867976            0   -3.4472283 -0.0063974718    1000000.1 
  644000   0.69192098   -4.4850349            0   -3.4471868 -0.0061702044    1000000.1 
  645000   0.68989509   -4.4819027            0   -3.4470933 -0.0057625163    1000000.1 
  646000   0.68831709   -4.4794541            0   -3.4470116 -0.0054465631    1000000.1 
  647000   0.68776599    -4.478562            0   -3.4469462 -0.0053460219    1000000.1 
  648000   0.68770361   -4.4783648            0   -3.4468426 -0.0053568475    1000000.1 
  649000   0.68775438   -4.4783353            0   -3.4467369 -0.0053961552    1000000.1 
  650000   0.68793507   -4.4784713            0   -3.4466019 -0.0054487596    1000000.1 
  651000   0.68814915   -4.4787592            0   -3.4465686 -0.0054969206    1000000.1 
  652000   0.68828597   -4.4788966            0   -3.4465009 -0.0055161637    1000000.1 
  653000   0.68775075   -4.4780675            0   -3.4464746 -0.0054259236    1000000.1 
  654000   0.68673169   -4.4764129            0   -3.4463485 -0.0052755109    1000000.1 
  655000   0.68600345   -4.4752987            0   -3.4463267 -0.0052241947    1000000.1 
  656000   0.68567117   -4.4747175            0   -3.4462439 -0.0052821865    1000000.1 
  657000   0.68572203   -4.4746711            0   -3.4461212 -0.0054534711    1000000.1 
  658000   0.68626151   -4.4754022            0   -3.4460431 -0.0057575547    1000000.1 
  659000    0.6865527   -4.4758597            0   -3.4460638 -0.0060353594    1000000.1 
  660000   0.68607494   -4.4751685            0   -3.4460891 -0.0061593192    1000000.1 
  661000   0.68662159   -4.4758747            0   -3.4459754 -0.0064307815    1000000.1 
  662000   0.68739112   -4.4769653            0   -3.4459118 -0.0066984519    1000000.1 
  663000   0.68689993   -4.4760864            0   -3.4457696 -0.0066678553    1000000.1 
  664000   0.68555985   -4.4738291            0   -3.4455223 -0.0064392247    1000000.1 
  665000   0.68515866   -4.4731048            0   -3.4453998 -0.0064017177    1000000.1 
  666000   0.68608331   -4.4743681            0   -3.4452763 -0.0066280094    1000000.1 
  667000   0.68621528   -4.4744999            0   -3.4452101 -0.0066990681    1000000.1 
  668000    0.6843915   -4.4717139            0   -3.4451596 -0.0063857649    1000000.1 
  669000   0.68272073    -4.469197            0   -3.4451488 -0.0061200766    1000000.1 
  670000   0.68327682   -4.4700061            0   -3.4451238 -0.0063276337    1000000.1 
  671000   0.68440597   -4.4716295            0   -3.4450535 -0.006708842    1000000.1 
  672000   0.68472317   -4.4720135            0   -3.4449617 -0.0069773748    1000000.1 
  673000   0.68473071    -4.471914            0    -3.444851 -0.0071941429    1000000.1 
  674000   0.68528915   -4.4726598            0   -3.4447592 -0.0074945183    1000000.1 
  675000   0.68554578   -4.4730423            0   -3.4447567 -0.0076991735    1000000.1 
  676000   0.68414975   -4.4708371            0   -3.4446455 -0.0075455312    1000000.1 
  677000   0.68292082   -4.4689243            0    -3.444576 -0.0074057952    1000000.1 
  678000   0.68325556   -4.4694094            0    -3.444559 -0.0075599935    1000000.1 
  679000   0.68455685   -4.4713739            0   -3.4445716 -0.0078633609    1000000.1 
  680000   0.68406888   -4.4705378            0   -3.4444675 -0.0077571967    1000000.1 
  681000   0.68118484   -4.4661406            0   -3.4443962 -0.0071612235    1000000.1 
  682000   0.67942991   -4.4633443            0   -3.4442322 -0.0067873146    1000000.1 
  683000   0.68024326   -4.4644711            0    -3.444139 -0.0069546997    1000000.1 
  684000   0.68233873   -4.4675842            0    -3.444109 -0.0073823119    1000000.1 
  685000   0.68311763   -4.4687312            0   -3.4440877 -0.0075185811    1000000.1 
  686000   0.68189674   -4.4668081            0   -3.4439959 -0.0072071726    1000000.1 
  687000   0.68055851   -4.4647114            0   -3.4439065 -0.0068326511    1000000.1 
  688000   0.67940156   -4.4629302            0   -3.4438606 -0.0065213475    1000000.1 
  689000   0.67887029   -4.4622221            0   -3.4439494 -0.0064103473    1000000.1 
  690000   0.67991243   -4.4637655            0   -3.4439296 -0.0066626347    1000000.1 
  691000   0.68158423    -4.466254            0   -3.4439105 -0.0070620787    1000000.1 
  692000   0.68202408   -4.4668103            0   -3.4438071 -0.0071902431    1000000.1 
  693000   0.68057962   -4.4645885            0   -3.4437519 -0.0069088886    1000000.1 
  694000   0.67931502   -4.4626148            0    -3.443675 -0.006608899    1000000.1 
  695000   0.67833905   -4.4611474            0   -3.4436716 -0.0063444487    1000000.1 
  696000   0.67740982   -4.4597034            0   -3.4436213 -0.0060815604    1000000.1 
  697000   0.67705443   -4.4592133            0   -3.4436643 -0.0059554058    1000000.1 
  698000   0.67839293   -4.4612015            0   -3.4436448 -0.0061631995    1000000.1 
  699000   0.67920972   -4.4623879            0   -3.4436061 -0.0062712763    1000000.1 
  700000    0.6786221   -4.4614404            0     -3.44354 -0.0060849603    1000000.1 
  701000   0.67792475   -4.4603424            0    -3.443488 -0.0058494212    1000000.1 
  702000   0.67818386   -4.4606727            0   -3.4434296 -0.0057869817    1000000.1 
  703000   0.67977639   -4.4630011            0   -3.4433693 -0.0059717528    1000000.1 
  704000   0.68054416   -4.4641896            0   -3.4434062 -0.006006119    1000000.1 
  705000   0.68035995   -4.4639028            0   -3.4433957 -0.0058644315    1000000.1 
  706000    0.6810185    -4.464827            0   -3.4433321 -0.0058893832    1000000.1 
  707000   0.68221512   -4.4665784            0   -3.4432886 -0.0060121854    1000000.1 
  708000   0.68221922   -4.4664745            0   -3.4431786 -0.0058752583    1000000.1 
  709000   0.68143326   -4.4653223            0   -3.4432053 -0.0055535315    1000000.1 
  710000   0.68041533   -4.4638231            0   -3.4432329 -0.0051688855    1000000.1 
  711000   0.67952499   -4.4624527            0   -3.4431979 -0.0048278855    1000000.1 
  712000   0.67943438   -4.4622891            0   -3.4431703 -0.0046837609    1000000.1 
  713000   0.67918599   -4.4618543            0   -3.4431081 -0.0045582011    1000000.1 
  714000   0.67893431   -4.4614906            0   -3.4431219 -0.0044762119    1000000.1 
  715000   0.68012493   -4.4632929            0   -3.4431383 -0.0046952606    1000000.1 
  716000   0.68220661   -4.4664368            0   -3.4431597 -0.0050983761    1000000.1 
  717000   0.68265535   -4.4670648            0   -3.4431147 -0.0051744428    1000000.1 
  718000   0.68074333   -4.4641265            0   -3.4430443 -0.0047712867    1000000.1 
  719000   0.67882647   -4.4612598            0   -3.4430528 -0.0043644966    1000000.1 
  720000   0.67860679   -4.4608753            0   -3.4429978 -0.0043060795    1000000.1 
  721000   0.67906865   -4.4615798            0   -3.4430095 -0.0044295648    1000000.1 
  722000   0.67988655   -4.4627669            0   -3.4429698 -0.0046413555    1000000.1 
  723000   0.68066525   -4.4639241            0    -3.442959 -0.0048392543    1000000.1 
  724000   0.68097845   -4.4643945            0   -3.4429597 -0.0049040732    1000000.1 
  725000   0.68014349   -4.4630742            0   -3.4428918 -0.0046937427    1000000.1 
  726000   0.67845119    -4.460379            0    -3.442735 -0.004301555    1000000.1 
  727000   0.67826367    -4.460019            0   -3.4426562 -0.0042258164    1000000.1 
  728000   0.67940654   -4.4617149            0   -3.4426379 -0.0044492989    1000000.1 
  729000   0.67996795   -4.4625471            0    -3.442628 -0.0045888767    1000000.1 
  730000     0.680817    -4.463829            0   -3.4426363 -0.0047620576    1000000.1 
  731000   0.68156332   -4.4650146            0   -3.4427025 -0.0048891041    1000000.1 
  732000   0.68170875   -4.4651646            0   -3.4426343 -0.0048743121    1000000.1 
  733000     0.681465   -4.4648169            0   -3.4426523 -0.0047781434    1000000.1 
  734000   0.67987643   -4.4623735            0   -3.4425916 -0.0044293173    1000000.1 
  735000    0.6781693   -4.4597917            0   -3.4425704 -0.0040917989    1000000.1 
  736000   0.67919918   -4.4612994            0   -3.4425334 -0.0043005624    1000000.1 
  737000   0.68103468   -4.4640678            0   -3.4425486 -0.0046637072    1000000.1 
  738000   0.68102509    -4.463979            0   -3.4424742 -0.0046144059    1000000.1 
  739000   0.67951224    -4.461723            0   -3.4424874 -0.0041965743    1000000.1 
  740000   0.67686841   -4.4576896            0   -3.4424196 -0.0035110654    1000000.1 
  741000   0.67501463   -4.4547916            0   -3.4423022 -0.0029956199    1000000.1 
  742000   0.67547211   -4.4554531            0   -3.4422775 -0.0030087395    1000000.1 
  743000   0.67809511     -4.45931            0   -3.4422001 -0.0035140424    1000000.1 
  744000   0.68066244   -4.4630648            0    -3.442104 -0.004063113    1000000.1 
  745000   0.68176057    -4.464682            0    -3.442074 -0.0043729566    1000000.1 
  746000   0.68279152   -4.4661846            0   -3.4420303 -0.0046745927    1000000.1 
  747000   0.68263213   -4.4659493            0    -3.442034 -0.0047467062    1000000.1 
  748000   0.68073334   -4.4631143            0   -3.4420471 -0.004472848    1000000.1 
  749000   0.67895777   -4.4602966            0   -3.4418927 -0.0042010731    1000000.1 
  750000   0.67815009   -4.4589983            0   -3.4418059 -0.0041400173    1000000.1 
  751000   0.67785482   -4.4585732            0   -3.4418236 -0.0042316492    1000000.1 
  752000   0.67720862   -4.4576002            0   -3.4418199 -0.0043169093    1000000.1 
  753000   0.67677915   -4.4568263            0   -3.4416902 -0.0044966126    1000000.1 
  754000   0.67810487   -4.4587348            0   -3.4416102 -0.0050424362    1000000.1 
  755000   0.68028454   -4.4619283            0   -3.4415343 -0.0057104523    1000000.1 
  756000   0.67925712   -4.4602844            0   -3.4414315 -0.0056921659    1000000.1 
  757000   0.67629754   -4.4557844            0   -3.4413707 -0.0052455588    1000000.1 
  758000   0.67559822   -4.4547017            0    -3.441337 -0.0052060781    1000000.1 
  759000   0.67615494   -4.4554754            0   -3.4412756 -0.0054130554    1000000.1 
  760000   0.67614284   -4.4553824            0   -3.4412007 -0.0055168549    1000000.1 
  761000   0.67568064   -4.4544819            0   -3.4409936 -0.0055378454    1000000.1 
  762000   0.67610508   -4.4550687            0   -3.4409437 -0.0057472247    1000000.1 
  763000   0.67655572   -4.4556404            0   -3.4408394 -0.0059582051    1000000.1 
  764000   0.67592649   -4.4546516            0   -3.4407944 -0.0059583155    1000000.1 
  765000   0.67529484   -4.4536212            0   -3.4407115 -0.0059493021    1000000.1 
  766000   0.67572017   -4.4542198            0   -3.4406721 -0.0061434123    1000000.1 
  767000   0.67611473   -4.4547347            0   -3.4405952 -0.006327294    1000000.1 
  768000   0.67565412   -4.4540008            0   -3.4405523 -0.0063264712    1000000.1 
  769000   0.67446306   -4.4521416            0   -3.4404795 -0.0061392514    1000000.1 
  770000   0.67216041   -4.4485715            0   -3.4403632 -0.0057041604    1000000.1 
  771000   0.66960608   -4.4447244            0   -3.4403476 -0.005215194    1000000.1 
  772000   0.66761693   -4.4416773            0   -3.4402841 -0.0048514554    1000000.1 
  773000   0.66761407   -4.4415622            0   -3.4401733 -0.004881922    1000000.1 
  774000   0.66827382   -4.4425802            0   -3.4402017 -0.0050554924    1000000.1 
  775000   0.66821461   -4.4423436            0   -3.4400539 -0.0050788348    1000000.1 
  776000   0.66794782   -4.4418427            0   -3.4399532 -0.0050818208    1000000.1 
  777000   0.66911148    -4.443563            0    -3.439928 -0.0053942008    1000000.1 
  778000   0.67089405   -4.4461687            0     -3.43986 -0.0058523276    1000000.1 
  779000   0.67197676   -4.4477138            0   -3.4397811 -0.0061793639    1000000.1 
  780000   0.67214012    -4.447978            0   -3.4398002 -0.0063064264    1000000.1 
  781000   0.67194947   -4.4475748            0    -3.439683 -0.0062848534    1000000.1 
  782000   0.67020472   -4.4449591            0   -3.4396843 -0.0059029148    1000000.1 
  783000   0.66747172   -4.4408694            0    -3.439694 -0.0053112613    1000000.1 
  784000   0.66757327   -4.4408881            0   -3.4395604 -0.0052515275    1000000.1 
  785000   0.66786974   -4.4412767            0   -3.4395043 -0.005283532    1000000.1 
  786000   0.66810717   -4.4415674            0   -3.4394389 -0.005334544    1000000.1 
  787000   0.66799073   -4.4412886            0   -3.4393347 -0.0053499176    1000000.1 
  788000   0.66792389   -4.4411611            0   -3.4393075 -0.0054184672    1000000.1 
  789000   0.66829697   -4.4416211            0   -3.4392079 -0.0056104146    1000000.1 
  790000   0.66890008   -4.4424116            0   -3.4390938 -0.0058934893    1000000.1 
  791000   0.66921658   -4.4427943            0   -3.4390017 -0.0061608472    1000000.1 
  792000   0.66985541   -4.4436537            0   -3.4389029 -0.0064759572    1000000.1 
  793000   0.66997217   -4.4438198            0   -3.4388939 -0.0066412136    1000000.1 
  794000   0.66912598   -4.4423977            0    -3.438741 -0.0065409958    1000000.1 
  795000   0.66766547   -4.4401375            0   -3.4386715 -0.0062749829    1000000.1 
  796000   0.66623828   -4.4379445            0   -3.4386192  -0.00599536    1000000.1 
  797000   0.66518873   -4.4362859            0   -3.4385349 -0.0057833956    1000000.1 
  798000   0.66360272    -4.433831            0    -3.438459 -0.0054946561    1000000.1 
  799000    0.6630838   -4.4329174            0   -3.4383237 -0.0054301247    1000000.1 
  800000   0.66299583   -4.4327086            0   -3.4382468 -0.0054886822    1000000.1 
  801000    0.6621737   -4.4314628            0   -3.4382341 -0.0054495602    1000000.1 
  802000   0.66118125   -4.4298952            0   -3.4381552 -0.0054212966    1000000.1 
  803000   0.66225568   -4.4314356            0    -3.438084 -0.0058271804    1000000.1 
  804000   0.66340741    -4.433106            0   -3.4380269 -0.0062811545    1000000.1 
  805000   0.66278974   -4.4321622            0   -3.4380096 -0.0064107455    1000000.1 
  806000   0.66240672   -4.4315471            0    -3.437969 -0.0065601639    1000000.1 
  807000   0.66299088   -4.4323964            0   -3.4379421 -0.0068580501    1000000.1 
  808000    0.6636083   -4.4332536            0   -3.4378732 -0.007120707    1000000.1 
  809000   0.66411397   -4.4340439            0    -3.437905 -0.0073106906    1000000.1 
  810000   0.66356197   -4.4330617            0   -3.4377507 -0.0072168584    1000000.1 
  811000   0.66158621   -4.4300844            0    -3.437737 -0.0067960013    1000000.1 
  812000   0.65929666   -4.4265598            0   -3.4376466 -0.0062825934    1000000.1 
  813000   0.65790182   -4.4243861            0   -3.4375651 -0.0059799239    1000000.1 
  814000   0.65851412   -4.4252475            0   -3.4375081 -0.0061477351    1000000.1 
  815000   0.66026624   -4.4278409            0   -3.4374734 -0.0066080039    1000000.1 
  816000   0.66068773   -4.4284427            0   -3.4374429 -0.0068469154    1000000.1 
  817000    0.6608094    -4.428615            0   -3.4374328 -0.007009904    1000000.1 
  818000   0.66163728   -4.4297806            0   -3.4373566 -0.0072608135    1000000.1 
  819000    0.6619299   -4.4301466            0   -3.4372837 -0.0073614765    1000000.1 
  820000   0.66115772    -4.428958            0   -3.4372533 -0.0071931415    1000000.1 
  821000   0.65970397   -4.4267811            0   -3.4372569 -0.0068244706    1000000.1 
  822000   0.65813192   -4.4243385            0   -3.4371724 -0.0063767961    1000000.1 
  823000   0.65661288   -4.4220981            0   -3.4372104 -0.0059449027    1000000.1 
  824000   0.65482188   -4.4193395            0   -3.4371383 -0.0055227319    1000000.1 
  825000   0.65406802   -4.4181887            0   -3.4371182 -0.0054201441    1000000.1 
  826000   0.65611147   -4.4211793            0   -3.4370438 -0.0059462577    1000000.1 
  827000   0.65834009   -4.4243793            0   -3.4369009 -0.0065429997    1000000.1 
  828000   0.65934425   -4.4258227            0   -3.4368381 -0.0068675482    1000000.1 
  829000    0.6590994   -4.4254235            0   -3.4368062 -0.006893216    1000000.1 
  830000   0.65919252    -4.425401            0    -3.436644 -0.0069303803    1000000.1 
  831000   0.65976353   -4.4261563            0   -3.4365428 -0.0070400548    1000000.1 
  832000   0.65979855   -4.4261597            0   -3.4364937 -0.0070422718    1000000.1 
  833000   0.65921854   -4.4252248            0   -3.4364288 -0.0069287857    1000000.1 
  834000   0.65879345   -4.4245914            0    -3.436433 -0.0068548376    1000000.1 
  835000   0.65854239   -4.4242092            0   -3.4364273 -0.0068092925    1000000.1 
  836000   0.65785109   -4.4231197            0   -3.4363748 -0.0066733665    1000000.1 
  837000   0.65815116   -4.4234243            0   -3.4362293 -0.0067144577    1000000.1 
  838000   0.65915013   -4.4248854            0    -3.436192 -0.0068892808    1000000.1 
  839000   0.65896044   -4.4245085            0   -3.4360996 -0.0068347759    1000000.1 
  840000   0.65838025   -4.4236082            0   -3.4360696 -0.0067155133    1000000.1 
  841000   0.65816396   -4.4232968            0   -3.4360826 -0.0066734713    1000000.1 
  842000   0.65777266   -4.4226651            0   -3.4360378 -0.0065917973    1000000.1 
  843000   0.65742856   -4.4221513            0   -3.4360401 -0.0065099656    1000000.1 
  844000   0.65706745   -4.4216012            0   -3.4360318 -0.006435069    1000000.1 
  845000   0.65830757   -4.4233679            0   -3.4359383 -0.0066676905    1000000.1 
  846000   0.65955462   -4.4252675            0   -3.4359674 -0.0069262776    1000000.1 
  847000   0.65973916   -4.4254943            0   -3.4359174 -0.0069964761    1000000.1 
  848000    0.6605962   -4.4267507            0   -3.4358883 -0.0072027984    1000000.1 
  849000   0.66160502   -4.4281815            0   -3.4358059 -0.0074338028    1000000.1 
  850000   0.66179446   -4.4285301            0   -3.4358703 -0.007502624    1000000.1 
  851000   0.66211906   -4.4290011            0   -3.4358544 -0.0075547836    1000000.2 
  852000   0.66202792   -4.4288842            0   -3.4358743 -0.0074909456    1000000.2 
  853000   0.66133646   -4.4278668            0    -3.435894 -0.0072659497    1000000.2 
  854000   0.66053873   -4.4266379            0   -3.4358617 -0.006963153    1000000.2 
  855000   0.65914121   -4.4244481            0    -3.435768 -0.0065003347    1000000.2 
  856000   0.65711693   -4.4213573            0   -3.4357136 -0.0059060621    1000000.2 
  857000    0.6550947   -4.4183461            0   -3.4357356 -0.0053424564    1000000.2 
  858000   0.65397651   -4.4166239            0   -3.4356907 -0.005023386    1000000.2 
  859000   0.65638489   -4.4201614            0   -3.4356157 -0.0054479501    1000000.2 
  860000   0.66005502   -4.4256712            0   -3.4356205 -0.0061636585    1000000.2 
  861000    0.6616716   -4.4281141            0   -3.4356387 -0.0064861781    1000000.2 
  862000    0.6622641   -4.4289522            0    -3.435588 -0.0065602124    1000000.2 
  863000   0.66229493   -4.4289709            0   -3.4355605 -0.0064786843    1000000.2 
  864000   0.66137063   -4.4275606            0   -3.4355366 -0.0061809344    1000000.2 
  865000   0.66019407   -4.4257445            0   -3.4354853 -0.0058199776    1000000.2 
  866000   0.65933955   -4.4244707            0   -3.4354932 -0.0055350339    1000000.2 
  867000   0.65790736   -4.4223172            0   -3.4354878 -0.0051799784    1000000.2 
  868000   0.65705229   -4.4209992            0   -3.4354525 -0.0049993141    1000000.2 
  869000   0.65999107   -4.4253995            0   -3.4354447 -0.0055670937    1000000.2 
  870000   0.66250809   -4.4291729            0   -3.4354427 -0.0060515129    1000000.2 
  871000   0.66365944   -4.4308971            0   -3.4354399 -0.0062123224    1000000.2 
  872000   0.66347857   -4.4306844            0   -3.4354985 -0.0060584911    1000000.2 
  873000   0.66222425   -4.4288095            0   -3.4355051 -0.0056672122    1000000.2 
  874000   0.66031518   -4.4259204            0   -3.4354795 -0.0051725712    1000000.2 
  875000   0.65959125    -4.424868            0    -3.435513 -0.0049623485    1000000.2 
  876000   0.66033377   -4.4258333            0   -3.4353645 -0.0050772391    1000000.2 
  877000   0.66065896   -4.4262703            0   -3.4353137 -0.0051628132    1000000.2 
  878000   0.66063989   -4.4262685            0   -3.4353405 -0.005209648    1000000.2 
  879000   0.66139397   -4.4273182            0   -3.4352592 -0.0054069674    1000000.2 
  880000   0.66230236   -4.4286751            0   -3.4352535 -0.0056375334    1000000.2 
  881000   0.66236622   -4.4288199            0   -3.4353025 -0.0056880075    1000000.2 
  882000   0.66180871   -4.4279791            0    -3.435298 -0.0055765347    1000000.2 
  883000   0.66135233   -4.4272449            0   -3.4352483 -0.0054457265    1000000.2 
  884000   0.66193326   -4.4280476            0   -3.4351796 -0.005465862    1000000.2 
  885000   0.66249624   -4.4287895            0   -3.4350771 -0.0054212199    1000000.2 
  886000   0.66121524   -4.4267802            0   -3.4349892 -0.0049844434    1000000.2 
  887000   0.65930387   -4.4239096            0   -3.4349856 -0.0044402702    1000000.2 
  888000   0.65929392   -4.4237916            0   -3.4348825 -0.0043146621    1000000.2 
  889000   0.66087574   -4.4261599            0   -3.4348782 -0.0045739588    1000000.2 
  890000   0.66225667   -4.4282675            0   -3.4349144 -0.0048178064    1000000.2 
  891000   0.66181896   -4.4275868            0   -3.4348903 -0.0046883404    1000000.2 
  892000   0.66078106   -4.4259674            0   -3.4348277 -0.004413326    1000000.2 
  893000   0.66054269   -4.4256406            0   -3.4348585 -0.0042787328    1000000.2 
  894000    0.6595572   -4.4241131            0   -3.4348091 -0.0040059742    1000000.2 
  895000   0.65870783   -4.4227632            0   -3.4347333 -0.003794068    1000000.2 
  896000   0.65999027   -4.4246651            0   -3.4347115 -0.0040380383    1000000.2 
  897000   0.66164402   -4.4271452            0   -3.4347111 -0.0043933781    1000000.2 
  898000   0.66220313   -4.4280098            0    -3.434737 -0.0045470349    1000000.2 
  899000   0.66158336   -4.4270919            0   -3.4347487 -0.0044588612    1000000.2 
  900000    0.6606695   -4.4256923            0   -3.4347199 -0.004296478    1000000.2 
  901000   0.66027421   -4.4250458            0   -3.4346664 -0.0042257218    1000000.2 
  902000   0.66017457   -4.4248654            0   -3.4346354 -0.0042210176    1000000.2 
  903000   0.66075447   -4.4256344            0   -3.4345346 -0.0043476545    1000000.2 
  904000   0.66114052   -4.4262073            0   -3.4345284 -0.0044478523    1000000.2 
  905000   0.66112245    -4.426112            0   -3.4344602 -0.004447808    1000000.2 
  906000   0.66059811   -4.4253377            0   -3.4344724 -0.0043240612    1000000.2 
  907000   0.65884622   -4.4226974            0   -3.4344598 -0.003971074    1000000.2 
  908000   0.65823687   -4.4217142            0   -3.4343907 -0.0038785064    1000000.2 
  909000   0.66027689   -4.4246999            0   -3.4343164 -0.0043415624    1000000.2 
  910000   0.66195194   -4.4271238            0   -3.4342278 -0.0047550173    1000000.2 
  911000   0.66094073   -4.4254834            0   -3.4341041 -0.0046533939    1000000.2 
  912000   0.65981078   -4.4237763            0   -3.4340919 -0.0045320831    1000000.2 
  913000   0.66000973   -4.4240399            0   -3.4340571 -0.0046643806    1000000.2 
  914000   0.65949536    -4.423241            0   -3.4340298 -0.0046658319    1000000.2 
  915000    0.6589024   -4.4223881            0   -3.4340663 -0.004634133    1000000.2 
  916000   0.65901829   -4.4225471            0   -3.4340514 -0.0047010906    1000000.2 
  917000   0.65946488   -4.4231308            0   -3.4339653 -0.0048082464    1000000.2 
  918000   0.66066485   -4.4249575            0    -3.433992 -0.0050535259    1000000.2 
  919000   0.66130906   -4.4258212            0   -3.4338895 -0.0051802286    1000000.2 
  920000   0.66045886   -4.4243955            0    -3.433739 -0.0050261927    1000000.2 
  921000   0.66012842   -4.4238106            0   -3.4336498 -0.004972466    1000000.2 
  922000   0.65972757   -4.4231414            0   -3.4335819 -0.004912806    1000000.2 
  923000   0.65826086   -4.4208703            0   -3.4335108 -0.0046730472    1000000.2 
  924000   0.65760577   -4.4198347            0   -3.4334578 -0.0046179418    1000000.2 
  925000   0.65798602   -4.4203087            0   -3.4333614 -0.0047810361    1000000.2 
  926000   0.65772891   -4.4198213            0   -3.4332597 -0.004834487    1000000.2 
  927000    0.6577149   -4.4197808            0   -3.4332402 -0.0049222559    1000000.2 
  928000   0.65832807   -4.4206491            0   -3.4331888 -0.0050896473    1000000.2 
  929000   0.65741539   -4.4193155            0   -3.4332241 -0.004945044    1000000.2 
  930000    0.6555905   -4.4164378            0   -3.4330836 -0.0046010432    1000000.2 
  931000   0.65448765   -4.4146451            0   -3.4329452 -0.0044036661    1000000.2 
  932000   0.65401552     -4.41382            0   -3.4328283 -0.0043551922    1000000.2 
  933000   0.65334302   -4.4127302            0   -3.4327471 -0.0043071485    1000000.2 
  934000   0.65265095   -4.4116403            0   -3.4326953 -0.0043032024    1000000.2 
  935000   0.65285905   -4.4119216            0   -3.4326645 -0.0045138079    1000000.2 
  936000   0.65328975     -4.41253            0   -3.4326269 -0.0048008468    1000000.2 
  937000   0.65378393   -4.4132494            0   -3.4326051 -0.0050990031    1000000.2 
  938000   0.65387608   -4.4133513            0   -3.4325687 -0.0052809571    1000000.2 
  939000   0.65298178   -4.4119064            0   -3.4324652 -0.0052189815    1000000.2 
  940000   0.65183301    -4.410044            0   -3.4323259 -0.0050649909    1000000.2 
  941000   0.65178158   -4.4099356            0   -3.4322946 -0.0051001367    1000000.2 
  942000   0.65171279   -4.4097891            0   -3.4322513 -0.0051396799    1000000.2 
  943000   0.65209565   -4.4102156            0   -3.4321035 -0.0052809399    1000000.2 
  944000   0.65307176   -4.4115751            0    -3.431999 -0.0055654292    1000000.2 
  945000   0.65348711   -4.4120937            0   -3.4318945 -0.0057612629    1000000.2 
  946000    0.6536611   -4.4123006            0   -3.4318404 -0.0059012494    1000000.2 
  947000   0.65398527   -4.4127364            0   -3.4317901 -0.0060397027    1000000.2 
  948000   0.65402137   -4.4128646            0   -3.4318641 -0.0060996484    1000000.2 
  949000   0.65292767   -4.4111539            0   -3.4317939 -0.0059215388    1000000.2 
  950000    0.6514369   -4.4088202            0   -3.4316963 -0.0056832758    1000000.2 
  951000   0.65112776   -4.4082488            0   -3.4315886 -0.0057122944    1000000.2 
  952000   0.65179881   -4.4091172            0   -3.4314505 -0.0059719172    1000000.2 
  953000   0.65295615     -4.41084            0   -3.4314373 -0.006321446    1000000.2 
  954000   0.65222516   -4.4096156            0   -3.4313093 -0.0062665831    1000000.2 
  955000   0.65127012   -4.4080735            0   -3.4311998 -0.0061467338    1000000.2 
  956000   0.65292732   -4.4104907            0   -3.4311312 -0.0065342316    1000000.2 
  957000   0.65483009   -4.4132824            0   -3.4310688 -0.0069961388    1000000.2 
  958000   0.65514385   -4.4137201            0   -3.4310359 -0.0071528895    1000000.2 
  959000   0.65423081    -4.412324            0   -3.4310093 -0.0070479592    1000000.2 
  960000   0.65311934    -4.410608            0   -3.4309605 -0.0068857361    1000000.2 
  961000   0.65290807   -4.4103515            0   -3.4310209 -0.0068928007    1000000.2 
  962000    0.6522903   -4.4093112            0   -3.4309072 -0.0068231503    1000000.2 
  963000    0.6512463   -4.4076205            0   -3.4307824 -0.0066917156    1000000.2 
  964000    0.6502255   -4.4060191            0   -3.4307122 -0.0066035832    1000000.2 
  965000   0.65031842   -4.4061202            0   -3.4306739 -0.0067577043    1000000.2 
  966000   0.65124774   -4.4075111            0    -3.430671 -0.0070779785    1000000.2 
  967000   0.65141745   -4.4077802            0   -3.4306855 -0.0072401442    1000000.2 
  968000   0.65054716    -4.406463            0   -3.4306737 -0.0071982178    1000000.2 
  969000   0.65033675   -4.4059551            0   -3.4304813 -0.0072787713    1000000.2 
  970000   0.65069958   -4.4063716            0   -3.4303536 -0.0074795181    1000000.2 
  971000    0.6505787    -4.406135            0   -3.4302983 -0.0075743763    1000000.2 
  972000   0.64993597   -4.4051381            0   -3.4302655 -0.0075307231    1000000.2 
  973000   0.65031635   -4.4057145            0   -3.4302714 -0.0076135164    1000000.2 
  974000   0.65012754   -4.4053766            0   -3.4302166 -0.007510038    1000000.2 
  975000   0.64840905   -4.4028826            0   -3.4303003 -0.0070711747    1000000.2 
  976000   0.64738712   -4.4013273            0   -3.4302778 -0.0067455845    1000000.2 
  977000   0.64833381    -4.402717            0   -3.4302476 -0.006802462    1000000.2 
  978000   0.64893213   -4.4035603            0   -3.4301934 -0.0068001147    1000000.2 
  979000   0.64845146   -4.4028103            0   -3.4301644 -0.0065909568    1000000.2 
  980000   0.64786756   -4.4019405            0   -3.4301704 -0.0063729011    1000000.2 
  981000   0.64831222   -4.4025153            0   -3.4300782 -0.0063648592    1000000.2 
  982000   0.64941965   -4.4041614            0   -3.4300633 -0.0065104547    1000000.2 
  983000    0.6497296   -4.4046225            0   -3.4300594 -0.0065315021    1000000.2 
  984000   0.64931636   -4.4039557            0   -3.4300125 -0.006442671    1000000.2 
  985000   0.64938756   -4.4039698            0   -3.4299198 -0.0064662328    1000000.2 
  986000   0.64973308   -4.4044821            0   -3.4299139 -0.0065576924    1000000.2 
  987000     0.649621   -4.4043172            0    -3.429917 -0.0065550283    1000000.2 
  988000   0.64855987   -4.4026756            0   -3.4298671 -0.0063630873    1000000.2 
  989000     0.647815   -4.4016207            0   -3.4299294 -0.0062321832    1000000.2 
  990000   0.64739833   -4.4010228            0   -3.4299565 -0.0061612237    1000000.2 
  991000   0.64728644   -4.4008128            0   -3.4299143 -0.0061452008    1000000.2 
  992000   0.64764429    -4.401397            0   -3.4299618 -0.0062298444    1000000.2 
  993000    0.6485203   -4.4026725            0   -3.4299233 -0.0064009308    1000000.2 
  994000   0.64890632   -4.4031627            0   -3.4298345 -0.0064485457    1000000.2 
  995000   0.64841139   -4.4023876            0   -3.4298018 -0.0062903057    1000000.2 
  996000   0.64794173    -4.401687            0   -3.4298057 -0.006105359    1000000.2 
  997000   0.64810189   -4.4018556            0    -3.429734 -0.0060337808    1000000.2 
  998000   0.64917969   -4.4034515            0   -3.4297133 -0.0061523345    1000000.2 
  999000   0.65029573   -4.4051947            0   -3.4297824 -0.0062696942    1000000.2 
 1000000   0.64962531   -4.4040658            0   -3.4296591 -0.0059939258    1000000.2 
Loop time of 17160.3 on 1 procs for 1000000 steps with 31103 atoms

Performance: 50.349 tau/day, 58.274 timesteps/s
85.8% CPU use with 1 MPI tasks x 1 OpenMP threads

MPI task timing breakdown:
Section |  min time  |  avg time  |  max time  |%varavg| %total
---------------------------------------------------------------
Pair    | 15811      | 15811      | 15811      |   0.0 | 92.14
Bond    | 1.5116     | 1.5116     | 1.5116     |   0.0 |  0.01
Neigh   | 5.7826     | 5.7826     | 5.7826     |   0.0 |  0.03
Comm    | 2.2622     | 2.2622     | 2.2622     |   0.0 |  0.01
Output  | 36.505     | 36.505     | 36.505     |   0.0 |  0.21
Modify  | 1237.5     | 1237.5     | 1237.5     |   0.0 |  7.21
Other   |            | 65.78      |            |       |  0.38

Nlocal:    31103 ave 31103 max 31103 min
Histogram: 1 0 0 0 0 0 0 0 0 0
Nghost:    200 ave 200 max 200 min
Histogram: 1 0 0 0 0 0 0 0 0 0
Neighs:    1.53244e+06 ave 1.53244e+06 max 1.53244e+06 min
Histogram: 1 0 0 0 0 0 0 0 0 0

Total # of neighbors = 1532443
Ave neighs/atom = 49.2699
Ave special neighs/atom = 0
Neighbor list builds = 165
Dangerous builds = 0
Total wall time: 4:46:00
